##############################################################################
###               Crystal structure data exported by Match!                ###
##############################################################################
###                           Data published by:                           ###
###                                                                        ###
###               COD (Crystallography Open Database)
##############################################################################
data_4343748
_citation_journal_full    'Inorganic Chemistry'
_citation_journal_volume  '16'
_citation_page_first  '2704'
_citation_page_last   '2709'
_citation_year  '1977'
_citation_title  'The crystal structure of Prussian Blue: Fe4 (Fe (C N)6)3 . x(H2 O)'
loop_
_publ_author_name
  'Buser H.J.'
  'Schwarzenbach D.'
  'Petter W.'
  'Ludi A.'
_chemical_formula_sum  'C18 H28 Fe7 N18 O14'
_chemical_name_common  'Fe4 (Fe (C N)6)3 (H2 O)14'
_symmetry_space_group_name_H-M 'P m -3 m'
_space_group_IT_number 221
_space_group_crystal_system 'cubic'
loop_
_symmetry_equiv_pos_as_xyz
   'x, y, z'
   '-y, x, z'
   '-x, -y, z'
   'y, -x, z'
   'x, -z, y'
   'x, -y, -z'
   'x, z, -y'
   'z, y, -x'
   '-x, y, -z'
   '-z, y, x'
   'z, x, y'
   'y, z, x'
   '-y, -z, x'
   'z, -x, -y'
   '-y, z, -x'
   '-z, -x, y'
   '-z, x, -y'
   'y, -z, -x'
   'y, x, -z'
   '-y, -x, -z'
   '-x, z, y'
   '-x, -z, -y'
   'z, -y, x'
   '-z, -y, -x'
   '-x, -y, -z'
   'y, -x, -z'
   'x, y, -z'
   '-y, x, -z'
   '-x, z, -y'
   '-x, y, z'
   '-x, -z, y'
   '-z, -y, x'
   'x, -y, z'
   'z, -y, -x'
   '-z, -x, -y'
   '-y, -z, -x'
   'y, z, -x'
   '-z, x, y'
   'y, -z, x'
   'z, x, -y'
   'z, -x, y'
   '-y, z, x'
   '-y, -x, z'
   'y, x, z'
   'x, -z, -y'
   'x, z, y'
   '-z, y, -x'
   'z, y, x'
_cell_length_a       10.16600
_cell_length_b       10.16600
_cell_length_c       10.16600
_cell_angle_alpha    90.0000
_cell_angle_beta     90.0000
_cell_angle_gamma    90.0000
_cell_formula_units_Z 1
loop_
_atom_site_label
_atom_site_fract_x
_atom_site_fract_y
_atom_site_fract_z
_atom_site_occupancy
_atom_site_B_iso_or_equiv
o      0.210   0.500   0.500    0.73300    1.000
o      0.261   0.261   0.261    1.00000    1.000
fe      0.500   0.000   0.000    0.91100    1.000
c      0.311   0.000   0.000    0.91100    1.000
c      0.189   0.500   0.000    0.91100    1.000
o      0.290   0.500   0.000    0.08900    1.000
o      0.210   0.000   0.000    0.08900    1.000
fe      0.000   0.500   0.500    1.00000    1.000
fe      0.500   0.500   0.500    0.26700    1.000
fe      0.000   0.000   0.000    1.00000    1.000
n      0.201   0.500   0.500    0.26700    1.000
n      0.299   0.500   0.000    0.91100    1.000
c      0.311   0.500   0.500    0.26700    1.000
n      0.201   0.000   0.000    0.91100    1.000
_cell_measurement_wavelength    1.541874
_cell_measurement_radiation   'x-rays'
_exptl_crystal_density_diffrn    1.712000
loop_
_pd_peak_d_spacing
_pd_peak_intensity
    10.166000         69.40
     7.188448         66.07
     5.869343         49.56
     5.083000       1000.00
     4.546374         39.25
     4.150252         16.74
     3.594224        593.68
     3.388667          9.79
     3.214772          8.21
     3.065164          8.97
     2.934672         30.71
     2.819541          0.01
     2.716978          2.89
     2.541500        508.21
     2.465617          6.60
     2.396149          3.55
     2.332240          0.13
     2.273187        219.56
     2.218403          5.09
     2.167399          0.27
     2.075126        116.95
     2.033200          3.31
     1.993717          5.50
     1.956448         15.37
     1.887779          7.82
     1.856049          4.91
     1.797112        202.08
     1.769674          0.45
     1.743455          1.97
     1.718368          9.13
     1.694333        100.87
     1.671280          2.60
     1.649143          2.70
     1.607386        163.41
     1.587663          2.48
     1.568648          1.91
     1.550301          1.04
     1.532582          6.81
     1.515458          4.59
     1.498895          1.25
     1.467336         40.28
     1.452286          2.48
     1.437690          2.04
     1.423525          6.24
     1.409771         78.46
     1.396408          1.68
     1.383417          1.82
     1.358489        104.33
     1.346520          1.02
     1.334861          0.04
     1.323501          2.93
     1.301623          2.03
     1.291083          1.93
     1.270750         18.73
     1.260937          1.35
     1.251348          0.81
     1.241975          0.19
     1.232809         38.45
     1.223843          0.42
     1.215069          0.60
     1.198075         39.40
     1.189840          0.65
     1.181774          0.59
     1.173869          1.76
     1.166120         12.19
     1.158523          1.78
     1.151073          0.10
     1.136593         32.98
     1.129556          0.97
     1.122647          0.26
     1.115864          1.64
     1.109202          4.48
     1.102658          0.98
     1.096228          1.40
     1.083699         35.11
     1.077594          1.22
     1.071591          0.92
     1.065686          1.74
     1.054165          0.56
     1.048543          0.28
     1.037563         15.67
     1.032201          0.17
     1.026921          0.37
     1.021721          1.04
     1.016600         22.30
     1.011555          1.65
     1.006584          0.30
##############################################################################
###                            Comments                                    ###
##############################################################################
###   Diffraction pattern calculated by Match!. 
###   I/Ic calculated by Match!. 
##############################################################################


