##############################################################################
###               Crystal structure data exported by Match!                ###
##############################################################################
###                           Data published by:                           ###
###                                                                        ###
###               COD (Crystallography Open Database)
##############################################################################
data_7052297
_citation_journal_full    'New Journal of Chemistry'
_citation_journal_volume  '30(8)'
_citation_page_first  '1197'
_citation_year  '2006'
_citation_title  'Syntheses, structural characterisation and magnetic properties ofFe(<small>II</small>) and Mn(<small>II</small>) compounds with thepentacyanopropenido ligand'
loop_
_publ_author_name
  'Emeric Lefebvre'
  'Fran?oise Conan'
  'Nathalie Cosquer'
  'Jean-Michel Kerbaol'
  'Mathieu Marchivie'
  'Jean Sala-Pala'
  'Marek M. Kubicki'
  'Estelle Vigier'
  'Carlos J. Gomez Garcia'
_chemical_formula_sum  'C17.5 H0 Fe N10 O0.5'
_symmetry_space_group_name_H-M 'P b c a'
_space_group_IT_number 61
_space_group_crystal_system 'orthorhombic'
loop_
_symmetry_equiv_pos_as_xyz
   'x, y, z'
   '-x+0.5, -y, z+0.5'
   'x+0.5, -y+0.5, -z'
   '-x, y+0.5, -z+0.5'
   '-x, -y, -z'
   'x+0.5, y, -z+0.5'
   '-x+0.5, y+0.5, z'
   'x, -y+0.5, z+0.5'
_cell_length_a       11.14000
_cell_length_b       11.49700
_cell_length_c       16.85400
_cell_angle_alpha    90.0000
_cell_angle_beta     90.0000
_cell_angle_gamma    90.0000
_cell_formula_units_Z 4
loop_
_atom_site_label
_atom_site_fract_x
_atom_site_fract_y
_atom_site_fract_z
_atom_site_occupancy
_atom_site_B_iso_or_equiv
fe      1.000   1.000   1.000    1.00000    1.350
n      0.910   0.968   0.892    1.00000    2.052
n      0.638   1.057   0.726    1.00000    3.474
n      1.069   0.757   0.747    1.00000    3.316
n      0.651   0.910   0.552    1.00000    1.737
n      0.933   0.658   0.548    1.00000    2.052
c      0.823   0.933   0.753    1.00000    1.737
c      0.870   0.852   0.702    1.00000    1.973
c      0.831   0.819   0.626    1.00000    1.579
c      0.875   0.953   0.830    1.00000    2.210
c      0.718   1.001   0.736    1.00000    2.052
c      0.982   0.798   0.729    1.00000    2.131
c      0.729   0.869   0.588    1.00000    1.342
c      0.888   0.730   0.584    1.00000    1.342
c      0.903   1.056   0.469    0.25000    2.447
c      1.000   1.000   0.500    0.50000    8.685
c      1.034   0.905   0.431    0.25000    2.842
o      1.042   1.044   0.560    0.25000    4.737
_cell_measurement_wavelength    1.541874
_cell_measurement_radiation   'x-rays'
_cell_measurement_temperature    170.000000
_exptl_crystal_density_diffrn    1.274000
_exptl_crystal_colour            'red'
loop_
_pd_peak_d_spacing
_pd_peak_intensity
     8.427000          4.37
     7.227456       1000.00
     6.720693        251.23
     5.802091        100.85
     5.748500        150.69
     5.570000         74.61
     5.440736        196.28
     5.012701        138.88
     4.888822         43.93
     4.804696         23.98
     4.748829         56.69
     4.646700        130.29
     4.597656         60.43
     4.368468         82.45
     4.308135          2.11
     4.213500        131.23
     4.017870          0.26
     4.000201          0.57
     3.941020         17.69
     3.892078         12.96
     3.779555          0.35
     3.740277          1.07
     3.728072          0.57
     3.613728        378.81
     3.542917         50.57
     3.458403          5.02
     3.398370         44.12
     3.398059          2.58
     3.360346         57.01
     3.329116         50.39
     3.258705          3.79
     3.258566         53.90
     3.250486          4.22
     3.225400         12.43
     3.157220         12.72
     3.106342         25.94
     3.103241          2.08
     3.067076         36.72
     3.045297          2.87
     2.991124         46.16
     2.956532        126.07
     2.925207         42.44
     2.907764          0.32
     2.901046          3.67
     2.874250         21.14
     2.833344          0.77
     2.813499          5.74
     2.809000         21.47
     2.797184         62.78
     2.785861          0.65
     2.785000          2.27
     2.752364         32.74
     2.747490         10.74
     2.745921          0.73
     2.727037          0.29
     2.723744         14.05
     2.720368          0.12
     2.707509          1.86
     2.706719          0.01
     2.672474          1.40
     2.650382         11.42
     2.644334         20.17
     2.642713         15.62
     2.634031          8.31
     2.577661          7.15
     2.577048         29.98
     2.558810         17.02
     2.554228         35.16
     2.542526          6.40
     2.526612         13.16
     2.525392          1.73
     2.523800         20.03
     2.508108         15.78
     2.506978          3.13
     2.506350          4.83
     2.493867         25.68
     2.479088          1.04
     2.468144         36.38
     2.461423          9.88
     2.450476          0.12
     2.444411         27.89
     2.439038         11.92
     2.438460          0.92
     2.409152         50.46
     2.402348         43.80
     2.374414         21.66
     2.325191         10.95
     2.323350         17.70
     2.322250          3.00
     2.305569         11.15
     2.304300          0.41
     2.298828         66.07
     2.289377          5.90
     2.288899          0.92
     2.277315          0.85
     2.253387          8.20
     2.252932          1.75
     2.252521          0.16
     2.240231          9.43
     2.233069          5.73
     2.232093         17.46
     2.220786          1.86
     2.220132          0.02
     2.198877          4.10
     2.194491          1.02
     2.187097          0.61
     2.184234          9.43
     2.177931          0.81
     2.176492          2.53
     2.175588          8.21
     2.170337          3.34
     2.169116          4.33
     2.154068         13.01
     2.153988          0.87
     2.146127          0.77
     2.125415          0.94
     2.117152          1.09
     2.110510          0.01
     2.108714          0.26
     2.107004          7.23
     2.106750          6.26
     2.098620          0.14
     2.091422          7.00
     2.091058          2.18
     2.090256         14.44
     2.087328          0.01
     2.070058          4.75
     2.062868          0.13
     2.061820          4.23
     2.060877          1.49
     2.038270         20.57
     2.037298          3.11
     2.035783          3.60
     2.017038          0.02
     2.011292          0.74
     2.008935          1.20
     2.005435         11.09
     2.000419          0.77
     2.000101          5.12
     1.989727         33.02
     1.987909          3.80
     1.986757          0.83
     1.986164          1.20
     1.986070          0.29
     1.978093          6.33
     1.977723          4.22
     1.977045          0.20
     1.970510          3.52
     1.969597          0.01
     1.949095          0.00
     1.948476          1.11
     1.947627          0.16
     1.946039          3.50
     1.942190          0.41
     1.941922         22.32
     1.941315          3.18
     1.934030          0.49
     1.916167          2.07
     1.914525          0.16
     1.913687          8.94
     1.905940          0.53
     1.904369          0.38
     1.903901          0.80
     1.897655          2.17
     1.889777          3.51
     1.884516          0.91
     1.884250          4.11
     1.877719          0.47
     1.876690          3.80
     1.873081          0.08
     1.872505          3.19
     1.870139          5.94
     1.868472          6.25
     1.864036          3.39
     1.863263          1.59
     1.856667          1.84
     1.846349         11.67
     1.845702          1.77
     1.842732          0.17
     1.834857         14.63
     1.832920          1.05
     1.832384          0.16
     1.823382          7.60
     1.822176          0.98
     1.822031         13.30
     1.821336          0.34
     1.820879          0.25
     1.813579          0.28
     1.813180          0.90
     1.811945          3.31
     1.809545          0.35
     1.806864         27.59
     1.801564          1.81
     1.798973          0.93
     1.797860          0.34
     1.791043          0.83
     1.790013          1.17
     1.787107          5.89
     1.780568          0.02
     1.773363          1.99
     1.773141          1.11
     1.771459         16.82
     1.768533          0.00
     1.766929          1.61
     1.766798          5.17
     1.763409          0.09
     1.758251          0.00
     1.757493          0.19
     1.757169          1.10
     1.757017          0.14
     1.754248          0.37
     1.752426          4.64
     1.752018          0.17
     1.751783          0.13
     1.751376          0.20
     1.745835          0.57
     1.745581          0.01
     1.744267          0.81
     1.742523          0.18
     1.736335          3.26
     1.735147          1.35
     1.729201          5.99
     1.725802          1.09
     1.724472          0.10
     1.723680          0.21
     1.723271          1.58
     1.720090          0.66
     1.699185         15.42
     1.699029          6.41
     1.696018          0.08
     1.694911          0.83
     1.694194          0.33
     1.691112          2.20
     1.690920          4.26
     1.685416          0.01
     1.685400          0.06
     1.680775          0.31
     1.680302          1.54
     1.680173          6.36
     1.679757          0.04
     1.672367          7.91
     1.670900          0.02
     1.670272          1.27
     1.669084          0.18
     1.666436          0.39
     1.665824          0.35
     1.664558          6.65
     1.663665         22.58
     1.662749          0.07
     1.662514          5.46
     1.654664          6.54
     1.653135          1.36
     1.652793          0.12
     1.649202          1.27
     1.647506          0.02
     1.645063          0.17
     1.644672          6.34
     1.638993          1.57
     1.634323          6.09
     1.629607          1.23
     1.629352         16.71
     1.629283          9.99
     1.625243          6.90
     1.624730          2.14
     1.618986          3.20
     1.617365          5.18
     1.617320          2.16
     1.613168          1.87
     1.612700          4.86
     1.610654          0.06
     1.610255          0.48
     1.605532          0.05
     1.604593          0.14
     1.601565          0.07
     1.600541          0.73
     1.597519          0.99
     1.595978          0.69
     1.595476          0.06
     1.593401          0.10
     1.592918          0.95
     1.588554          0.93
     1.582943          5.74
     1.578767          0.06
     1.578610          6.83
     1.575368          6.08
     1.572877          0.00
     1.571994          0.70
     1.571731          0.09
     1.569548          3.06
     1.569270          0.01
     1.569026          0.01
     1.568531          0.17
     1.567200          0.02
     1.564868          1.13
     1.563788          0.25
     1.560890          7.24
     1.560772          0.60
     1.559579          0.52
     1.553691          2.73
     1.553228          0.08
     1.553171         13.35
     1.552945          0.80
     1.551620          4.10
     1.549520          0.19
     1.548900          4.17
     1.548541          0.42
     1.545104          0.32
     1.540015          0.58
     1.538882          5.68
     1.538782          0.02
     1.538507          0.13
     1.538463          0.77
     1.535032          0.31
     1.534717          0.00
     1.533538          7.43
     1.532552          2.95
     1.530768          0.14
     1.528209          0.43
     1.527428          0.22
     1.522649          6.24
     1.521224          0.01
     1.519893          0.03
     1.519753          2.18
     1.517779          4.73
     1.517667          5.14
     1.517377          0.17
     1.516859          0.11
     1.516042          0.04
     1.510250          0.08
     1.508951          0.61
     1.504834          2.79
     1.504074          2.91
     1.502750          0.75
     1.500170          0.05
     1.499403          0.90
     1.499309          0.09
     1.497066          0.07
     1.496253          0.24
     1.496130          7.85
     1.495853          0.04
     1.495562          1.75
     1.491985          0.26
     1.488777          0.03
     1.486815          0.05
     1.485912          1.34
     1.482783          0.02
     1.480496          0.05
     1.479592          0.09
     1.479220          0.01
     1.478753          0.17
     1.478266          8.15
     1.476449          0.79
     1.475603          0.00
     1.467592          0.03
     1.465262          0.29
     1.464185          7.35
     1.463685          2.64
     1.462604          2.93
     1.458409          0.09
     1.456156          0.35
     1.453882          1.32
     1.451090          2.07
     1.450523          3.34
     1.447886          0.02
     1.447776          0.27
     1.447414          0.07
     1.445491          6.13
     1.445301          1.12
     1.444544          0.29
     1.441919          1.39
     1.441656          0.20
     1.441227          0.32
     1.440123          0.44
     1.439861          2.31
     1.439267          0.13
     1.437125          0.38
     1.436045          0.49
     1.433018          0.30
     1.431929          0.07
     1.431662          0.08
     1.430816          0.26
     1.430711          0.05
     1.429603          1.04
     1.427960          5.51
     1.427750          0.52
     1.427194          0.09
     1.424720          0.84
     1.424433          0.29
     1.423777          0.04
     1.422531          2.91
     1.421889          2.09
     1.421559          0.00
     1.421342          0.02
     1.420244          0.22
     1.417534          1.79
     1.416672          2.32
     1.415423          0.19
     1.414846          0.13
     1.414734          0.06
     1.411229          2.85
     1.409776          0.36
     1.406750          5.22
     1.406515          0.07
     1.406503          0.92
     1.406195          0.02
     1.405723          5.27
     1.405354          0.14
     1.405081          0.05
     1.404500          1.13
     1.399035          0.11
     1.398592          3.58
     1.396022          0.03
     1.395209          0.04
     1.393469          0.65
     1.392930          1.97
     1.392500          1.12
     1.392293          0.20
     1.391553          0.89
     1.390948          0.70
     1.390337          0.00
     1.390262          0.03
     1.387739          0.21
     1.387537          0.07
     1.386834          0.09
     1.384650          0.11
     1.383345          0.30
     1.382818          0.05
     1.382397          0.17
     1.381545          0.11
     1.378437          0.53
     1.377771          0.13
     1.376182          0.41
     1.375223          0.06
     1.374716          0.16
     1.374032          0.29
     1.373870          0.77
     1.373745          0.92
     1.373642          0.01
     1.373435          1.11
     1.372960          2.22
     1.372727          0.25
     1.372006          5.20
     1.371903          0.42
     1.367008          0.00
     1.366469          0.01
     1.364368          1.42
     1.364164          0.97
     1.363519          4.71
     1.361872          0.65
     1.360184          1.16
     1.356601          0.05
     1.354249          0.90
     1.353813          0.77
     1.353754          1.17
     1.353359          1.88
     1.352417          0.22
     1.352326          0.67
     1.352072          0.37
     1.351383          0.01
     1.351100          0.10
     1.350734          0.06
     1.350157          0.03
     1.349555          0.04
     1.349339          0.01
     1.349017          0.07
     1.347245          3.92
     1.346855          2.71
     1.346149          0.03
     1.344139          0.28
     1.342683          2.24
     1.342356          0.62
     1.342222          0.00
     1.341154          0.21
     1.339290          1.09
     1.336237          1.64
     1.336035          0.54
     1.335046          0.63
     1.334146          1.23
     1.333400          0.47
     1.333375          0.09
     1.332639          2.86
     1.329715          0.07
     1.329247          0.06
     1.328523          3.75
     1.327757          0.29
     1.325191          0.76
     1.324577          0.00
     1.324320          0.74
     1.323617          0.00
     1.322167          0.63
     1.321989          1.28
     1.321964          0.28
     1.321356          2.13
     1.320590          0.31
     1.320159          0.00
     1.318864          2.64
     1.318261          0.04
     1.317987          3.27
     1.317016          1.00
     1.315721          0.28
##############################################################################
###                            Comments                                    ###
##############################################################################
###   synthesis as described
###   Diffraction pattern calculated by Match!. 
###   I/Ic calculated by Match!. 
###   Space group has been derived from given symmetry operations. 
##############################################################################


