##############################################################################
###               Crystal structure data exported by Match!                ###
##############################################################################
###                           Data published by:                           ###
###                                                                        ###
###               COD (Crystallography Open Database)
##############################################################################
data_5000325
_chemical_formula_sum  'C107 H85 Fe8 N5 O31'
_symmetry_space_group_name_H-M 'P -1'
_space_group_IT_number 2
_space_group_crystal_system 'triclinic'
loop_
_symmetry_equiv_pos_as_xyz
   'x, y, z'
   '-x, -y, -z'
_cell_length_a       19.21100
_cell_length_b       23.67600
_cell_length_c       15.76700
_cell_angle_alpha   103.1400
_cell_angle_beta     99.0700
_cell_angle_gamma   108.9600
_cell_formula_units_Z 2
loop_
_atom_site_label
_atom_site_fract_x
_atom_site_fract_y
_atom_site_fract_z
_atom_site_occupancy
_atom_site_B_iso_or_equiv
fe      0.414   0.328   0.625    1.00000    10.406
fe      0.256   0.202   0.537    1.00000    11.125
fe      0.286   0.339   0.703    1.00000    6.142
fe      0.100   0.234   0.595    1.00000    5.905
fe      0.115   0.360   0.683    1.00000    3.339
fe      -0.067   0.246   0.584    1.00000    3.403
fe      -0.009   0.378   0.775    1.00000    2.810
fe      -0.179   0.298   0.647    1.00000    3.016
o      0.302   0.286   0.598    1.00000    8.685
o      0.182   0.311   0.674    1.00000    4.974
o      0.037   0.282   0.602    1.00000    3.868
o      -0.075   0.315   0.673    1.00000    2.842
o      0.402   0.366   0.743    1.00000    4.895
c      0.427   0.359   0.825    1.00000    5.763
c      0.373   0.306   0.846    1.00000    5.763
c      0.382   0.274   0.911    1.00000    10.896
c      0.332   0.232   0.927    1.00000    10.975
c      0.250   0.213   0.871    1.00000    9.158
c      0.245   0.242   0.804    1.00000    6.474
n      0.299   0.285   0.794    1.00000    5.684
o      0.168   0.184   0.599    1.00000    5.605
c      0.143   0.128   0.620    1.00000    7.421
c      0.151   0.079   0.516    1.00000    4.974
c      0.095   0.018   0.505    1.00000    8.369
c      0.095   -0.023   0.440    1.00000    12.633
c      0.132   -0.012   0.382    1.00000    5.448
c      0.202   0.068   0.389    1.00000    7.816
n      0.193   0.099   0.473    1.00000    8.606
o      0.070   0.340   0.788    1.00000    3.316
c      0.116   0.357   0.878    1.00000    4.105
c      0.128   0.422   0.929    1.00000    3.474
c      0.187   0.458   1.008    1.00000    3.868
c      0.190   0.515   1.050    1.00000    4.895
c      0.137   0.536   1.023    1.00000    4.579
c      0.075   0.499   0.942    1.00000    3.789
n      0.072   0.442   0.901    1.00000    3.079
o      0.056   0.417   0.701    1.00000    2.195
c      0.032   0.438   0.633    1.00000    3.789
c      0.085   0.439   0.566    1.00000    3.789
c      0.086   0.474   0.507    1.00000    5.921
c      0.133   0.462   0.444    1.00000    6.474
c      0.172   0.426   0.451    1.00000    4.579
c      0.168   0.395   0.509    1.00000    3.868
n      0.124   0.401   0.575    1.00000    3.000
o      -0.184   0.214   0.580    1.00000    2.779
c      -0.246   0.178   0.508    1.00000    3.158
c      -0.313   0.198   0.528    1.00000    4.737
c      -0.389   0.157   0.478    1.00000    7.816
c      -0.452   0.176   0.509    1.00000    12.396
c      -0.425   0.242   0.550    1.00000    10.817
c      -0.348   0.276   0.609    1.00000    5.684
n      -0.297   0.249   0.589    1.00000    3.395
o      0.423   0.290   0.488    1.00000    8.527
c      0.356   0.216   0.436    1.00000    6.395
o      0.327   0.180   0.480    1.00000    9.711
o      0.424   0.249   0.661    1.00000    7.816
c      0.387   0.207   0.686    1.00000    9.080
o      0.310   0.172   0.642    1.00000    9.080
c      0.402   0.176   0.775    0.50000    2.684
c      0.358   0.131   0.795    0.50000    4.974
c      0.383   0.103   0.870    0.50000    7.106
c      0.462   0.138   0.932    0.50000    7.579
c      0.511   0.192   0.904    0.50000    4.579
c      0.477   0.207   0.818    0.50000    4.500
o      0.400   0.399   0.586    1.00000    5.211
c      0.356   0.431   0.604    1.00000    4.026
o      0.309   0.412   0.652    1.00000    4.184
c      0.366   0.484   0.582    1.00000    4.421
c      0.337   0.528   0.627    1.00000    4.579
c      0.346   0.578   0.598    1.00000    6.316
c      0.387   0.594   0.533    1.00000    6.711
c      0.415   0.551   0.491    1.00000    7.737
c      0.412   0.503   0.511    1.00000    7.816
o      0.196   0.205   0.420    1.00000    6.000
c      0.143   0.227   0.407    1.00000    4.342
o      0.129   0.255   0.481    1.00000    5.921
c      0.099   0.223   0.331    1.00000    5.211
c      0.112   0.193   0.257    1.00000    13.185
c      0.089   0.200   0.174    1.00000    14.370
c      0.013   0.198   0.155    1.00000    20.449
c      -0.008   0.235   0.239    1.00000    12.001
c      0.041   0.240   0.323    1.00000    5.526
o      0.299   0.411   0.815    1.00000    3.553
c      0.266   0.449   0.815    1.00000    1.737
o      0.204   0.437   0.768    1.00000    2.826
c      0.314   0.515   0.864    1.00000    2.052
c      0.274   0.555   0.886    1.00000    3.316
c      0.317   0.618   0.940    1.00000    7.185
c      0.399   0.639   0.974    1.00000    12.633
c      0.438   0.596   0.939    1.00000    10.027
c      0.394   0.535   0.892    1.00000    3.868
o      0.063   0.200   0.696    1.00000    5.290
c      0.004   0.191   0.718    1.00000    5.526
o      -0.057   0.198   0.673    1.00000    4.105
c      -0.010   0.167   0.794    1.00000    5.763
c      0.044   0.144   0.826    1.00000    7.658
c      0.023   0.117   0.901    1.00000    10.343
c      -0.039   0.113   0.937    1.00000    10.264
c      -0.076   0.146   0.899    1.00000    16.423
c      -0.065   0.174   0.825    1.00000    8.764
o      0.020   0.154   0.504    1.00000    4.658
c      -0.049   0.141   0.457    1.00000    4.579
o      -0.093   0.169   0.480    1.00000    3.316
c      -0.079   0.083   0.377    1.00000    4.658
c      -0.159   0.058   0.347    1.00000    6.079
c      -0.189   -0.002   0.277    1.00000    7.816
c      -0.138   -0.018   0.231    1.00000    10.185
c      -0.056   0.009   0.266    1.00000    8.764
c      -0.028   0.063   0.346    1.00000    4.974
o      -0.092   0.287   0.487    1.00000    2.929
c      -0.136   0.315   0.482    1.00000    2.447
o      -0.176   0.324   0.532    1.00000    2.937
c      -0.134   0.342   0.411    1.00000    3.710
c      -0.188   0.370   0.383    1.00000    6.474
c      -0.189   0.396   0.312    1.00000    7.421
c      -0.133   0.398   0.261    1.00000    5.132
c      -0.075   0.375   0.287    1.00000    4.816
c      -0.077   0.350   0.358    1.00000    3.395
o      -0.073   0.338   0.859    1.00000    4.421
c      -0.139   0.302   0.842    1.00000    2.605
o      -0.188   0.282   0.770    1.00000    3.710
c      -0.159   0.278   0.914    1.00000    2.842
c      -0.105   0.296   0.993    1.00000    5.921
c      -0.121   0.278   1.065    1.00000    7.500
c      -0.206   0.235   1.059    1.00000    9.001
c      -0.255   0.221   0.982    1.00000    9.001
c      -0.234   0.245   0.914    1.00000    5.369
o      -0.060   0.439   0.779    1.00000    3.395
c      -0.130   0.431   0.748    1.00000    2.684
o      -0.183   0.381   0.701    1.00000    3.079
c      -0.147   0.489   0.761    1.00000    3.316
c      -0.225   0.484   0.729    1.00000    4.184
c      -0.239   0.539   0.740    1.00000    5.053
c      -0.181   0.599   0.785    1.00000    4.895
c      -0.103   0.604   0.825    1.00000    5.132
c      -0.086   0.552   0.806    1.00000    3.947
o      0.526   0.374   0.661    1.00000    7.500
c      0.577   0.403   0.735    1.00000    9.237
o      0.616   0.376   0.770    1.00000    9.474
c      0.577   0.461   0.786    1.00000    6.553
c      0.554   0.497   0.744    1.00000    6.395
c      0.560   0.557   0.781    1.00000    6.948
c      0.599   0.584   0.875    1.00000    10.027
c      0.618   0.548   0.925    1.00000    7.737
c      0.613   0.483   0.878    1.00000    5.526
c      0.429   0.183   0.717    0.50000    1.894
c      0.389   0.133   0.731    0.50000    2.368
c      0.409   0.105   0.792    0.50000    4.500
c      0.492   0.144   0.860    0.50000    4.263
c      0.538   0.196   0.827    0.50000    5.921
c      0.507   0.218   0.759    0.50000    2.763
c      0.306   0.292   0.269    1.00000    11.764
c      0.278   0.300   0.199    1.00000    8.843
c      0.358   -0.023   0.637    1.00000    13.659
c      0.373   0.020   0.561    1.00000    24.476
c      0.313   0.338   0.350    1.00000    9.316
_cell_measurement_wavelength    1.541874
_cell_measurement_radiation   'x-rays'
_cell_measurement_temperature    105.000000
_exptl_crystal_density_diffrn    1.238000
_exptl_crystal_colour            'red'
loop_
_pd_peak_d_spacing
_pd_peak_intensity
    21.372327       1000.00
    17.585367        482.99
    17.082934        155.50
    14.861196        569.72
    14.375453        686.81
    13.087982        124.86
    11.609728         21.49
    11.244490         13.46
    11.181588         18.04
    11.180260         53.82
    11.080188          1.60
    10.786284        198.32
    10.686164        134.65
    10.244330        209.01
    10.161217          0.89
     9.670284         15.60
     9.478145         15.28
     8.792683          1.17
     8.570125         23.02
     8.546661          2.79
     8.541467          4.54
     8.345339          1.65
     8.211302         11.17
     7.968496          3.57
     7.909851          7.28
     7.774517         75.20
     7.681351          3.68
     7.660403          0.37
     7.559770          0.43
     7.531672          0.00
     7.502596          0.88
     7.470409          0.21
     7.468703          8.39
     7.430598          1.36
     7.424028         21.49
     7.387016          0.18
     7.332974          0.34
     7.232629         20.27
     7.187727         30.52
     7.124109          0.03
     6.957112          5.41
     6.850295          3.70
     6.828369          5.46
     6.799536          0.05
     6.674893          2.90
     6.632137          0.05
     6.543991          3.18
     6.537002          1.94
     6.447339          0.15
     6.301068          0.82
     6.300355          6.59
     6.286493          0.16
     6.286393          0.75
     6.228500          1.24
     6.215776          1.18
     6.214224          6.24
     6.209071          0.16
     6.179094          0.63
     6.137610         49.90
     6.131272          0.03
     6.088584          0.46
     6.015108         13.09
     5.991141          0.07
     5.934353          2.59
     5.879738          0.16
     5.861789          0.02
     5.850462          2.01
     5.835122          4.21
     5.804864          0.27
     5.795306          0.78
     5.786495          1.92
     5.747052          2.63
     5.694311          4.10
     5.622245          0.35
     5.597063         12.05
     5.590794         44.60
     5.590130          0.33
     5.586370          2.11
     5.553385          1.39
     5.540094          0.03
     5.516898          0.14
     5.493667          8.55
     5.489753          0.23
     5.445376          0.21
     5.410555          1.64
     5.393142          1.52
     5.343082          0.95
     5.330165          5.72
     5.327644          1.05
     5.307091          2.42
     5.297811          2.10
     5.294596          1.97
     5.215370          1.19
     5.184008          1.88
     5.179115          0.04
     5.177411          5.71
     5.122165          7.34
     5.115549          0.30
     5.113826          5.67
     5.080609          1.82
     5.037801          2.27
     5.021277          4.76
     5.019215          0.88
     5.002220          0.14
     4.994113          0.08
     4.989019          1.66
     4.988430          0.06
     4.975595          2.62
     4.953732          0.16
     4.937955          1.31
     4.918384          0.34
     4.890687          3.46
     4.871189          0.09
     4.859531          9.74
     4.851802          5.12
     4.839855          0.81
     4.835142          0.42
     4.824519          2.39
     4.808397          0.03
     4.791818         51.22
     4.780168          0.59
     4.765110          2.38
     4.750388          6.96
     4.739072          6.88
     4.734316          6.49
     4.732248          3.22
     4.722539          0.64
     4.711696          0.19
     4.708015          0.13
     4.690428          5.82
     4.688790          0.18
     4.665407          9.12
     4.663817          0.15
     4.650070          3.03
     4.640107          2.37
     4.634048          1.48
     4.628025          0.69
     4.612531          1.57
     4.609307          0.63
     4.588930          7.22
     4.582681          0.02
     4.578510          4.98
     4.565123          0.52
     4.563228          1.02
     4.537395          0.34
     4.537295          0.41
     4.532422          0.72
     4.522403          5.76
     4.513705          0.94
     4.507201          0.02
     4.496571          0.42
     4.483117          1.68
     4.479416          0.12
     4.478017          0.03
     4.474161          0.07
     4.421074          0.13
     4.419380          0.13
     4.396342         15.22
     4.367625          1.25
     4.362661          5.86
     4.344039          0.98
     4.333855          0.11
     4.307671          0.97
     4.300853          0.06
     4.300310          0.06
     4.296000          0.27
     4.293527          0.24
     4.292940          2.84
     4.288424          6.79
     4.285063          1.27
     4.274567          0.28
     4.274465          7.05
     4.273330          0.09
     4.271819          0.12
     4.271597          0.51
     4.270733          0.69
     4.260741          0.68
     4.223872          5.38
     4.214962          0.99
     4.193389          1.45
     4.191432          1.92
     4.184837          0.55
     4.172670          0.88
     4.160363          6.04
     4.159816          0.07
     4.130083          1.15
     4.127818          3.05
     4.125456          8.15
     4.110924          0.20
     4.105651          0.57
     4.098319          4.17
     4.097341          0.35
     4.097014          0.16
     4.086053          1.29
     4.083214          2.99
     4.075336          9.19
     4.062592          0.09
     4.056327          0.72
     4.052902          2.66
     4.043582          1.60
     4.033112          0.00
     4.024271          0.07
     4.023551          0.62
     4.018913          0.84
     4.015878          1.39
     4.014860          0.09
     4.013719          1.25
     4.011150          0.17
     3.984248          2.89
     3.970586          1.05
     3.956167          2.06
     3.954925          2.19
     3.954040         10.38
     3.932688          0.11
     3.929484          2.16
     3.925356          0.01
     3.915480          1.62
     3.914731          1.48
     3.901091          2.70
     3.887258          2.83
     3.882680          6.10
     3.876511          0.42
     3.869909          0.66
     3.859809          0.02
     3.854412          5.38
     3.840676          2.50
     3.836341          1.08
     3.835256          0.15
     3.830201          5.20
     3.826328          0.15
     3.816635          6.17
     3.816337          0.15
     3.811611          0.03
     3.800216          0.00
     3.796566          0.60
     3.795794          0.79
     3.793462          0.38
     3.792047          2.53
     3.790168          2.35
     3.789494          0.01
     3.787243          0.43
     3.784034          0.20
     3.779885          0.44
     3.777772          0.15
     3.765836          0.03
     3.763505          0.45
     3.763435          0.16
     3.761134          3.10
     3.752558          0.01
     3.751298          0.55
     3.749249          1.90
     3.749094          0.13
     3.748163          3.50
     3.735204          0.28
     3.734352          1.24
     3.731320          0.61
     3.727196          0.30
     3.726753          0.08
     3.724906          0.13
     3.715299          0.00
     3.712014          5.94
     3.709362          0.04
     3.707034          2.20
     3.699898          0.03
     3.698285          0.85
     3.693508          0.16
     3.693396          2.85
     3.689528          0.08
     3.681713          1.06
     3.677426          0.19
     3.666487          0.22
     3.662453          0.07
     3.657474          0.01
     3.635017          0.10
     3.634857          0.27
     3.634800          0.67
     3.634556          0.30
     3.634495          2.59
     3.633325          0.13
     3.628689          0.00
     3.627054          2.01
     3.626814          0.02
     3.626078          0.55
     3.616315          0.36
     3.606060          7.29
     3.602734          0.47
     3.595428          0.00
     3.593863          1.37
     3.586718          0.18
     3.572177          0.22
     3.569953          1.79
     3.562055          0.10
     3.559675          1.97
     3.555587          0.12
     3.555286          0.09
     3.554907          9.87
     3.554811          0.36
     3.552420          0.09
     3.551903          0.69
     3.550419          1.12
     3.543720          0.90
     3.541808          0.15
     3.541247          3.40
     3.539511          8.84
     3.534947          0.03
     3.527439          0.00
     3.519185          0.43
     3.517073          0.00
     3.514765          0.05
     3.513015          0.79
     3.507905          0.02
     3.498769          0.13
     3.491952          0.28
     3.490941          1.23
     3.489019          0.37
     3.488373          0.06
     3.479887          0.01
     3.478556          0.02
     3.477220          5.23
     3.475547          0.29
     3.473897          0.19
     3.466246          6.95
     3.463256          0.82
     3.458652          0.97
     3.455706          2.24
     3.454792          1.32
     3.454684          0.41
     3.451516          0.54
     3.446748         13.10
     3.425147          3.12
     3.423571          0.00
     3.422732          1.58
     3.416587          0.16
     3.414914          0.23
     3.414777          0.49
     3.414184          0.10
     3.410797          0.59
     3.409101          0.04
     3.406979          0.08
     3.404435          0.06
     3.399768          0.00
     3.398216          0.11
     3.393231          0.19
     3.390251          0.64
     3.387072          0.17
     3.380823          0.06
     3.378137          0.07
     3.375336          0.68
     3.374959          0.28
     3.370071          0.50
     3.369351          0.10
     3.368491          0.11
     3.358319          0.13
     3.352258          0.93
     3.340483          5.65
     3.337446          0.97
     3.336331          0.20
     3.336212          0.07
     3.333939          0.42
     3.328360          0.86
     3.325528          0.53
     3.322970          2.29
     3.322643          0.19
     3.319640          0.05
     3.316069          0.08
     3.306728          0.04
     3.303954          0.09
     3.303665          1.03
     3.300968          1.18
     3.293345          0.00
     3.292239          0.97
     3.290644          1.03
     3.288966          0.03
     3.283762          0.06
     3.282645          0.38
     3.278909          0.03
     3.274942          0.73
     3.271996          0.50
     3.268651          2.65
     3.268501          0.11
     3.261218          1.59
     3.254394          0.00
     3.253766          0.29
     3.251115          0.00
     3.244630          0.07
     3.243900          0.08
     3.243201          0.48
     3.242337          0.01
     3.242119          0.05
     3.241047          0.01
     3.237669          0.68
     3.226347          0.50
     3.225394          0.71
     3.224783          0.38
     3.223669          0.44
     3.223428          0.09
     3.218556          0.03
     3.216097          0.11
     3.209284          0.05
     3.197393          0.72
     3.195089          2.36
     3.194762          0.01
     3.190016          0.01
     3.189246          0.00
     3.183766          0.02
     3.181366          0.13
     3.176740          0.30
     3.175483          3.58
     3.173820          1.65
     3.171803          0.04
     3.170655          0.23
     3.165954          0.99
     3.159382          0.44
     3.158268          0.00
     3.151036          0.00
     3.150534          0.25
     3.150177          0.27
     3.150012          0.07
     3.147770          0.30
     3.146910          2.25
     3.145175          0.12
     3.143246          1.67
     3.143197          0.14
     3.139006          0.00
     3.137794          0.04
     3.137175          0.54
     3.128157          0.11
     3.127924          0.59
     3.121261          0.06
     3.119839          0.03
     3.114250          1.30
     3.114108          0.01
     3.113701          0.39
     3.113280          0.54
     3.111010          0.97
     3.107888          1.34
     3.107112          0.11
     3.106622          1.03
     3.105564          0.24
     3.104536          0.54
     3.103365          0.14
     3.100436          0.05
     3.098731          0.31
     3.097380          1.48
     3.097350          0.08
     3.095926          2.79
     3.090069          0.14
     3.089547          2.90
     3.088193          0.00
     3.084836          0.25
     3.084382          0.64
     3.084079          0.35
     3.080290          1.04
     3.080089          0.46
     3.078745          1.97
     3.076466          0.28
     3.072964          1.60
     3.072258          0.72
     3.071546          0.08
     3.070201          0.45
     3.068805          1.20
     3.066287          0.46
     3.065876          1.17
     3.065636          0.15
     3.064553          0.09
     3.062470          0.51
     3.062218          1.16
     3.059782          0.53
     3.058939          0.18
     3.058598          0.07
     3.055334          0.04
     3.053190          0.19
     3.051415          2.18
     3.047215          0.36
     3.044292          0.85
     3.042513          0.50
     3.034707          0.19
     3.033285          6.06
     3.028402          0.11
     3.028295          0.64
     3.023393          0.83
     3.021141          1.66
     3.012531          0.02
     3.010670          0.21
     3.009945          3.16
     3.009595          0.57
     3.007554          0.02
     3.006666          1.50
     3.006074          2.63
     3.000071          0.01
     2.999678          0.10
     2.999498          0.01
     2.998038          0.05
     2.995570          0.41
     2.993536          0.01
     2.992196          0.10
##############################################################################
###                            Comments                                    ###
##############################################################################
###   Diffraction pattern calculated by Match!. 
###   I/Ic calculated by Match!. 
###   Space group has been derived from given symmetry operations. 
##############################################################################


