##############################################################################
###               Crystal structure data exported by Match!                ###
##############################################################################
###                           Data published by:                           ###
###                                                                        ###
###               COD (Crystallography Open Database)
##############################################################################
data_9000764
_citation_journal_full    'American Mineralogist'
_citation_journal_volume  '65'
_citation_page_first  '327'
_citation_page_last   '334'
_citation_year  '1980'
_citation_title  'The crystal structures of whewellite and weddellite: re-examination and comparison'
loop_
_publ_author_name
  'Tazzoli V.'
  'Domeneghetti M. C.'
_chemical_formula_sum  'C2 H6 Ca O6.375'
_chemical_name_mineral  'Weddellite'
_symmetry_space_group_name_H-M 'I 4/m'
_space_group_IT_number 87
_space_group_crystal_system 'tetragonal'
loop_
_symmetry_equiv_pos_as_xyz
   'x, y, z'
   'x+0.5, y+0.5, z+0.5'
   '-y, x, z'
   '-y+0.5, x+0.5, z+0.5'
   '-x, -y, z'
   '-x+0.5, -y+0.5, z+0.5'
   'y, -x, z'
   'y+0.5, -x+0.5, z+0.5'
   '-x, -y, -z'
   '-x+0.5, -y+0.5, -z+0.5'
   'y, -x, -z'
   'y+0.5, -x+0.5, -z+0.5'
   'x, y, -z'
   'x+0.5, y+0.5, -z+0.5'
   '-y, x, -z'
   '-y+0.5, x+0.5, -z+0.5'
_cell_length_a       12.37100
_cell_length_b       12.37100
_cell_length_c        7.35700
_cell_angle_alpha    90.0000
_cell_angle_beta     90.0000
_cell_angle_gamma    90.0000
loop_
_atom_site_label
_atom_site_fract_x
_atom_site_fract_y
_atom_site_fract_z
_atom_site_occupancy
_atom_site_B_iso_or_equiv
c      0.446   0.241   0.105    1.00000    1.229
ca      0.199   0.301   0.000    1.00000    0.968
o      0.356   0.246   0.183    1.00000    1.459
o      0.235   0.463   0.180    1.00000    2.790
o      0.149   0.115   0.000    1.00000    2.750
o      0.019   0.384   0.000    1.00000    2.970
o      0.000   0.000   0.683    0.57990    7.200
o      0.000   0.000   0.240    0.17000    7.000
h      0.166   0.071   0.105    1.00000    5.000
h      0.350   0.018   0.115    1.00000    5.000
_cell_measurement_wavelength    1.541874
_cell_measurement_radiation   'x-rays'
_exptl_crystal_density_diffrn    2.031000
loop_
_pd_peak_d_spacing
_pd_peak_intensity
     8.747618         80.98
     6.323320         26.31
     6.185500       1000.00
     4.421731        300.97
     4.373809         18.26
     3.912054        129.15
     3.678500         81.75
     3.597143         17.55
     3.390888         27.80
     3.161660         46.55
     3.109554         12.72
     3.092750        149.08
     2.915873          0.47
     2.815218        139.90
     2.778244        922.52
     2.766240         22.73
     2.679857          9.79
     2.426153        130.56
     2.405525        127.66
     2.367243         26.32
     2.345133         77.94
     2.285051         21.22
     2.241954        275.05
     2.210865         97.56
     2.192822         17.09
     2.186905          0.07
     2.121609        150.80
     2.107773          2.51
     2.061833          0.07
     2.025309         79.34
     1.995120         41.80
     1.960257        165.67
     1.956027         31.34
     1.898791        200.62
     1.879793          2.50
     1.868664          2.18
     1.839250         13.05
     1.837837        167.88
     1.799895          0.96
     1.798571         15.18
     1.788817         40.25
     1.762963         15.48
     1.749524         35.74
     1.741741         70.71
     1.727043          1.68
     1.718401          0.01
     1.715549          7.89
     1.695444         45.56
     1.676542          7.92
     1.664469          4.75
     1.655696         15.92
     1.624392         18.97
     1.580830          2.12
     1.579933         24.62
     1.565475         35.40
     1.555632          5.30
     1.554777         11.60
     1.548463          1.08
     1.546375          0.81
     1.531602         10.40
     1.517625          1.28
     1.502110         30.37
     1.500204         32.30
     1.485958         33.74
     1.473910          1.94
     1.465687          3.28
     1.461101          0.01
     1.457936          0.97
     1.438100         17.58
     1.433768         10.14
     1.425536         17.01
     1.421969         11.84
     1.420664         13.52
     1.407609          0.01
     1.396736          0.18
     1.389732         45.38
     1.389122         23.07
     1.385821          0.14
     1.383120          3.55
     1.372519          8.44
     1.366148          3.56
     1.355364          1.26
     1.352297          1.31
     1.351175          2.49
     1.339929          1.22
     1.339382         18.22
     1.330540         14.73
     1.321094         13.64
     1.320047         24.17
     1.304018          0.23
     1.300786         14.56
     1.294629          4.27
     1.290977          1.80
     1.280679          1.26
     1.267634          8.58
     1.264664          1.84
     1.254530          0.83
     1.249660          1.92
     1.246814          5.23
     1.239032          0.96
     1.238168         17.01
     1.237100          0.20
     1.229075          0.77
     1.226167         10.91
     1.217530         12.07
     1.214295          0.30
     1.214083          0.75
     1.213076          1.21
     1.202762          8.88
     1.201578          0.93
     1.199048          2.12
     1.192121         42.33
     1.183621          3.32
     1.183245          4.64
     1.180649          3.73
     1.177135         12.41
     1.172566         20.65
     1.170579          2.18
     1.170040          0.69
     1.169851          0.28
     1.162529          3.75
     1.156381          0.36
     1.152049         17.02
     1.150164         15.99
     1.149473          4.12
     1.148619          0.07
     1.142525          0.05
     1.142187          4.03
     1.139851          0.52
     1.132903          8.87
     1.130782          0.64
     1.130296          1.32
     1.130125         11.89
     1.120977          0.41
     1.120018          0.64
     1.117968         11.83
     1.112347          3.58
     1.111722          0.03
     1.105433          0.60
     1.100143          1.30
     1.096711          0.41
     1.096411          2.93
     1.094345          6.58
     1.094190         16.58
     1.093452          2.22
     1.085009          3.24
     1.078031          2.83
     1.071453          1.24
     1.069525          0.14
     1.066910          0.40
     1.063779          1.20
     1.062022         17.52
##############################################################################
###                            Comments                                    ###
##############################################################################
###   Diffraction pattern calculated by Match!. 
###   I/Ic calculated by Match!. 
##############################################################################


