##############################################################################
###               Crystal structure data exported by Match!                ###
##############################################################################
###                           Data published by:                           ###
###                                                                        ###
###               COD (Crystallography Open Database)
##############################################################################
data_9009518
_citation_journal_full    'Mineralogical Magazine'
_citation_journal_volume  '64'
_citation_page_first  '1069'
_citation_page_last   '1075'
_citation_year  '2000'
_citation_title  'Crystal chemistry of basic lead carbonates II. Crystal structure of synthetic `plumbonacrite' Locality: synthetic'
loop_
_publ_author_name
  'Krivovichev S. V.'
  'Burns P. C.'
_chemical_formula_sum  'C3 H2 O12 Pb5'
_chemical_name_mineral  'Plumbonacrite'
_symmetry_space_group_name_H-M 'P 63 c m'
_space_group_IT_number 185
_space_group_crystal_system 'hexagonal'
loop_
_symmetry_equiv_pos_as_xyz
   'x, y, z'
   'x-y, x, z+0.5'
   '-y, x-y, z'
   '-x, -y, z+0.5'
   '-x+y, -x, z'
   'y, -x+y, z+0.5'
   '-x+y, y, z+0.5'
   'x, x-y, z+0.5'
   '-y, -x, z+0.5'
   'y, x, z'
   'x-y, -y, z'
   '-x, -x+y, z'
_cell_length_a        9.09210
_cell_length_b        9.09210
_cell_length_c       24.92300
_cell_angle_alpha    90.0000
_cell_angle_beta     90.0000
_cell_angle_gamma   120.0000
loop_
_atom_site_label
_atom_site_fract_x
_atom_site_fract_y
_atom_site_fract_z
_atom_site_occupancy
_atom_site_B_iso_or_equiv
pb      0.646   0.000   0.093    1.00000    1.167
pb      0.000   0.000   0.317    1.00000    1.372
pb      0.678   0.000   0.499    1.00000    1.792
pb      0.000   0.247   0.200    1.00000    1.451
pb      0.667   0.333   0.280    1.00000    2.929
pb      0.426   0.079   0.391    0.50000    3.000
c      0.000   0.000   0.110    1.00000    1.578
c      0.000   0.000   0.465    1.00000    0.552
c      0.333   0.667   0.112    1.00000    1.578
c      0.323   0.323   0.302    1.00000    1.578
c      0.667   0.333   0.486    1.00000    2.366
o      0.711   0.000   0.177    1.00000    1.578
o      0.525   0.199   0.481    1.00000    0.631
o      0.469   0.469   0.294    1.00000    0.394
o      0.000   0.138   0.478    1.00000    1.500
o      0.000   0.000   0.220    1.00000    3.947
o      0.667   0.333   0.366    1.00000    1.578
o      0.143   0.000   0.102    1.00000    4.105
o      0.185   0.323   0.299    1.00000    2.684
o      0.332   -0.190   0.123    1.00000    2.921
o      0.649   0.000   0.409    1.00000    1.421
_cell_measurement_wavelength    1.541874
_cell_measurement_radiation   'x-rays'
_exptl_crystal_density_diffrn    7.070000
loop_
_pd_peak_d_spacing
_pd_peak_intensity
    12.461500          0.25
     7.873990          9.45
     7.508191          0.00
     6.656510         74.43
     6.230750          4.93
     5.714918          0.00
     4.886047         20.14
     4.546050         24.25
     4.472260         35.63
     4.270739        354.89
     4.211632          0.00
     4.153833          0.55
     3.988008        155.18
     3.936995          0.00
     3.888775          0.00
     3.754096         52.67
     3.673950         85.26
     3.672458        120.59
     3.557716          0.00
     3.358905       1000.00
     3.328255         89.07
     3.244184          0.00
     3.115375         11.26
     3.089541          0.00
     3.066507        136.17
     2.976088          5.36
     2.955095        132.89
     2.896874        100.26
     2.894682         47.00
     2.857459          2.53
     2.803062         39.57
     2.801738         92.97
     2.685474         49.05
     2.640724          0.00
     2.624663        411.68
     2.612372          0.00
     2.569845         34.46
     2.568314          9.11
     2.555287         10.84
     2.492300        206.35
     2.443023          1.50
     2.419243          5.44
     2.418817         50.71
     2.376113         25.63
     2.364989          2.77
     2.283433         48.57
     2.273025          5.71
     2.265028          0.00
     2.263630         27.50
     2.236130        119.88
     2.218837          9.20
     2.192443         97.84
     2.185420         53.05
     2.183852          0.36
     2.177377          0.00
     2.175516          8.51
     2.151969          1.56
     2.151070          5.05
     2.135370         46.32
     2.112096          0.90
     2.105816          5.77
     2.076917          0.35
     2.068144         93.59
     2.060928          8.15
     2.027829         27.36
     2.027327         67.52
     2.008231          1.54
     2.007257         13.16
     2.000296          4.76
     1.994004         34.30
     1.968497          4.36
     1.963752          0.00
     1.962386          0.00
     1.944387         28.43
     1.932986         42.03
     1.915883         49.89
     1.915460          0.00
     1.910772         17.42
     1.889103         15.59
     1.877048         32.13
     1.862735          0.00
     1.861569          0.45
     1.836975         19.90
     1.836229         34.92
     1.830896          0.00
     1.807305        153.69
     1.806417          0.13
     1.802748         19.13
     1.801691         22.28
     1.788248         24.13
     1.787732          7.28
     1.780214          0.33
     1.778858         44.55
     1.766496         22.83
     1.765170         14.56
     1.756953         10.18
     1.736389          1.58
     1.734973         31.91
     1.723652          0.00
     1.722728          0.00
     1.718245          6.15
     1.714783          3.49
     1.714176          6.87
     1.703181         31.19
     1.702141        105.51
     1.698333          6.27
     1.682633         40.30
     1.679452         16.27
     1.664128         37.86
     1.657648          3.21
     1.656552          2.51
     1.656416          0.26
     1.642507         16.26
     1.628682         23.77
     1.624441         41.07
     1.622092         20.66
     1.611694         14.57
     1.610939          9.12
     1.604685          3.66
     1.604436          0.00
     1.587766          0.90
     1.574798          2.13
     1.572365          2.02
     1.571664          0.00
     1.562716          1.78
     1.562372          4.01
     1.560567         86.28
     1.557688          3.50
     1.547468         42.53
     1.547245          0.00
     1.544771         12.06
     1.533253          8.43
     1.530792          0.00
     1.528074          5.91
     1.527752         20.55
     1.526787          2.90
     1.515350         20.78
     1.512973         14.99
     1.512557         10.85
     1.504986          2.41
     1.504576         23.84
     1.504269          6.25
     1.501638          0.00
     1.490753          0.12
     1.488044          1.84
     1.485991          0.00
     1.485399          4.36
     1.477547          4.07
     1.473583          2.11
     1.473295          4.95
     1.472525          0.73
     1.472429         30.66
     1.465490         13.81
     1.464733          4.67
     1.462634          3.17
     1.460028         13.77
     1.450752          5.19
     1.449834         13.30
     1.448437          0.14
     1.447341          2.59
     1.440749          0.25
     1.440209          0.00
     1.428730          1.88
     1.425864          0.84
     1.423580         17.07
     1.414636          0.37
     1.414210          0.30
     1.412448          5.83
     1.411939         14.81
     1.405441         14.07
     1.405190          2.44
     1.401531          0.16
     1.400869          3.70
     1.395298          3.53
     1.394318          1.70
     1.394155          3.76
     1.384611          3.03
     1.380080          2.09
     1.379843          1.20
     1.379132          6.20
     1.373893          0.00
     1.373425          0.00
     1.372958          2.62
     1.369081          0.05
     1.368926          0.00
     1.363688          5.45
     1.363002         11.25
     1.362697          4.09
     1.360513          1.25
     1.342737          0.12
     1.341373         13.55
     1.339543          2.73
     1.338748          0.40
     1.331302          3.76
     1.329336          6.01
     1.324538          0.72
     1.323909         24.07
     1.322323          0.97
     1.320362          6.39
     1.315146          5.10
     1.314736          5.10
     1.314325          3.62
     1.312332         17.82
     1.310787          2.74
     1.306186          0.28
     1.305114          3.69
     1.294802         11.48
     1.294476          0.36
     1.293124          0.00
     1.292733          1.57
     1.287741          0.87
     1.287548          0.70
     1.284922          1.17
     1.284157         18.58
     1.279546         10.90
     1.279042          0.23
     1.277643          5.68
     1.269701          0.00
     1.268148          9.95
     1.267964         16.69
     1.267412          2.37
     1.260847          0.95
     1.260320          2.22
     1.259598          5.49
     1.259477         13.29
     1.259237         21.07
     1.255394          0.24
     1.254859          0.09
     1.254443         14.53
     1.252916          0.51
     1.251365         15.52
     1.246572         18.23
     1.246150          5.92
     1.244479          0.00
     1.243784          2.73
     1.236310          7.01
     1.235856         10.70
     1.235799          6.64
     1.232025          8.34
     1.230831          2.32
     1.229990          2.49
     1.224650          9.79
     1.224153         15.77
     1.222899          3.33
     1.222349          1.06
     1.221512          8.64
     1.217215          0.00
     1.216890          0.00
     1.216565          0.15
     1.209622          6.46
     1.209409          3.25
     1.206492          8.80
     1.201815         17.23
     1.200772          0.23
     1.200317         11.11
     1.199693          5.48
     1.199381          1.04
     1.195390          1.24
     1.195236          6.46
     1.194428         15.80
     1.188827          0.38
     1.188524         24.75
     1.188423         12.23
     1.188056          0.13
     1.182495          0.94
     1.179669          0.03
     1.179521          2.02
     1.179076          0.48
     1.175798          0.00
     1.175504          2.28
     1.172680          1.20
     1.169381          3.04
     1.168949          5.14
     1.168756          5.35
     1.167378          4.47
     1.161192         10.41
     1.154050          5.35
     1.153911          5.71
     1.153541          2.16
     1.149452          1.49
     1.148767          3.20
     1.148323          5.51
     1.147504         15.29
     1.142984          0.00
     1.141716          2.94
     1.138339          2.81
     1.138073          1.37
     1.137807          7.45
     1.136513          4.57
     1.136126          2.87
     1.135333          0.87
     1.132864          0.57
     1.132514          6.15
     1.131815         15.96
     1.126025          4.64
     1.125713          8.34
     1.125070          6.64
     1.124856          1.11
     1.124481          0.50
     1.123968          0.78
     1.123712          0.15
     1.121318          0.02
     1.120428          0.78
     1.120301          3.38
     1.119635          2.89
     1.118065          1.74
     1.115268         15.28
     1.114684          1.16
     1.109418          7.32
     1.108485          0.48
     1.108075          6.45
     1.107451          0.89
     1.107329          6.21
     1.106961          3.38
     1.102388          1.90
     1.101743          9.66
     1.101663          0.38
     1.099246          0.16
     1.098927          0.81
     1.098568          1.94
     1.097263          0.15
     1.096221          2.85
     1.092710          8.70
     1.091926          0.00
     1.091583          0.00
     1.090879          0.71
     1.088689          0.92
     1.087758          0.62
     1.086174          0.73
     1.085750          4.27
     1.082691          4.05
     1.082615          1.16
     1.082338          2.73
     1.081766          1.83
     1.078128          0.15
     1.077788          2.34
     1.076932          1.86
     1.075985          1.91
     1.075535          6.26
     1.073045          0.00
     1.072822          0.20
     1.072599          0.73
     1.067685          4.72
     1.066633          0.03
     1.061414          4.25
     1.060982          1.66
     1.058752          2.11
     1.058003         12.18
     1.056332          3.29
     1.056048          1.13
     1.054078          3.62
     1.053655          1.83
     1.053444          4.47
     1.052908          3.31
     1.052040          0.02
     1.051410          1.00
     1.047056          0.20
     1.046952          0.65
     1.044346          0.63
     1.043935          0.73
     1.042935          1.24
     1.042773          0.52
     1.042637          5.67
     1.042160          0.06
     1.042023          1.27
     1.040114         12.31
     1.039843          4.89
     1.039538          6.75
     1.039302          9.60
     1.038458          0.08
     1.034813          4.30
     1.034072          2.72
     1.030464          0.67
     1.029543          0.34
     1.028920          0.23
     1.028625          0.06
     1.025755          0.18
     1.025268          3.57
     1.022169          3.93
     1.021150          0.32
     1.020830         10.35
     1.018215          2.15
     1.017834          1.68
     1.017644          8.63
     1.016378          0.00
     1.015872          0.19
     1.015809          0.53
     1.013914          0.14
     1.013663          0.01
     1.012381          4.32
     1.011539          0.12
     1.008778          3.72
     1.008161          0.04
     1.007891          0.00
     1.007522          0.25
     1.007337          1.83
##############################################################################
###                            Comments                                    ###
##############################################################################
###   Diffraction pattern calculated by Match!. 
###   I/Ic calculated by Match!. 
##############################################################################


