##############################################################################
###               Crystal structure data exported by Match!                ###
##############################################################################
###                           Data published by:                           ###
###                                                                        ###
###               COD (Crystallography Open Database)
##############################################################################
data_2012740
_citation_journal_full    'Acta Crystallographica Section C'
_citation_journal_volume  '58(6)'
_citation_page_first  'i82'
_citation_page_last   'i84'
_citation_year  '2002'
_citation_title  'Synthetic hydrocerussite, 2PbCO~3~&diffraction'
loop_
_publ_author_name
  'Martinetto Pauline'
  'Anne Michel'
  'Dooryh?e Eric'
  'Walter Philippe'
  'Tsoucaris Georges'
_chemical_formula_sum  'C2 H2 O8 Pb3'
_chemical_name_mineral  'Hydrocerussite'
_symmetry_space_group_name_H-M 'R -3 m'
_space_group_IT_number 166
_space_group_crystal_system 'trigonal (hexagonal axes)'
loop_
_symmetry_equiv_pos_as_xyz
   'x, y, z'
   'x+0.66667, y+0.33333, z+0.33333'
   'x+0.33333, y+0.66667, z+0.66667'
   '-y, x-y, z'
   '-y+0.66667, x-y+0.33333, z+0.33333'
   '-y+0.33333, x-y+0.66667, z+0.66667'
   '-x+y, -x, z'
   '-x+y+0.66667, -x+0.33333, z+0.33333'
   '-x+y+0.33333, -x+0.66667, z+0.66667'
   'x-y, -y, -z'
   'x-y+0.66667, -y+0.33333, -z+0.33333'
   'x-y+0.33333, -y+0.66667, -z+0.66667'
   '-x, -x+y, -z'
   '-x+0.66667, -x+y+0.33333, -z+0.33333'
   '-x+0.33333, -x+y+0.66667, -z+0.66667'
   'y, x, -z'
   'y+0.66667, x+0.33333, -z+0.33333'
   'y+0.33333, x+0.66667, -z+0.66667'
   '-x, -y, -z'
   '-x+0.66667, -y+0.33333, -z+0.33333'
   '-x+0.33333, -y+0.66667, -z+0.66667'
   'y, -x+y, -z'
   'y+0.66667, -x+y+0.33333, -z+0.33333'
   'y+0.33333, -x+y+0.66667, -z+0.66667'
   'x-y, x, -z'
   'x-y+0.66667, x+0.33333, -z+0.33333'
   'x-y+0.33333, x+0.66667, -z+0.66667'
   '-x+y, y, z'
   '-x+y+0.66667, y+0.33333, z+0.33333'
   '-x+y+0.33333, y+0.66667, z+0.66667'
   'x, x-y, z'
   'x+0.66667, x-y+0.33333, z+0.33333'
   'x+0.33333, x-y+0.66667, z+0.66667'
   '-y, -x, z'
   '-y+0.66667, -x+0.33333, z+0.33333'
   '-y+0.33333, -x+0.66667, z+0.66667'
_cell_length_a        5.24650
_cell_length_b        5.24650
_cell_length_c       23.70200
_cell_angle_alpha    90.0000
_cell_angle_beta     90.0000
_cell_angle_gamma   120.0000
_cell_formula_units_Z 3
loop_
_atom_site_label
_atom_site_fract_x
_atom_site_fract_y
_atom_site_fract_z
_atom_site_occupancy
_atom_site_B_iso_or_equiv
pb      0.000   0.000   0.215    1.00000    1.358
pb      0.916   -0.916   0.002    0.16660    1.697
c      0.000   0.000   0.430    1.00000    2.210
o      0.857   -0.857   0.432    1.00000    2.210
o      -0.293   0.293   0.020    0.33330    0.789
_cell_measurement_wavelength    1.541874
_cell_measurement_radiation   'x-rays'
_cell_measurement_temperature    295.000000
_exptl_crystal_density_diffrn    6.840000
_exptl_crystal_density_meas      6.820000
loop_
_pd_peak_d_spacing
_pd_peak_intensity
     7.900667         25.97
     4.462351        273.68
     4.242485        270.71
     3.950333          0.36
     3.605620        748.61
     3.280179       1000.00
     2.715012         87.32
     2.633556        341.09
     2.623250        538.56
     2.489606         92.77
     2.481748          0.35
     2.261437         13.58
     2.231176        243.43
     2.185304          0.58
     2.121242        148.58
     2.101455        181.36
     2.048686        182.49
     1.975167          3.81
     1.946895         16.72
     1.886524        126.98
     1.858551        292.95
     1.802810          0.40
     1.712830          3.98
     1.699569        163.91
     1.692083         31.96
     1.649444         37.02
     1.640089         25.20
     1.614632         72.70
     1.586447        133.17
     1.580133          3.56
     1.577899         69.95
     1.563373         38.75
     1.531592        131.81
     1.514534         40.77
     1.487450         60.07
     1.485769         12.94
     1.421935         11.21
     1.414162         12.32
     1.408409          9.61
     1.390660         30.41
     1.357506         42.41
     1.353544          6.48
     1.342964         39.78
     1.332893          3.26
     1.316778         14.68
     1.312908         37.40
     1.311625         33.86
     1.293916         39.15
     1.258391          0.14
     1.253104         64.39
     1.250095          2.33
     1.244803         14.16
     1.240874         17.46
     1.232603          8.91
     1.217870         25.82
     1.205638         35.22
     1.202957         40.54
     1.201873         51.57
     1.188297          3.00
     1.181028         59.65
     1.176836         28.42
     1.174070         32.95
     1.159631          7.41
     1.146735          0.01
     1.134598          0.00
     1.130719         27.97
     1.128667          1.22
     1.121709         35.84
     1.115588          4.72
     1.112680          4.37
     1.104630          8.14
     1.093466         11.99
     1.093393          0.09
     1.092652         31.87
     1.087793         23.60
     1.082421         17.18
     1.076918         23.83
     1.060621          2.69
     1.050727          1.22
     1.048297          0.59
     1.041367          0.06
     1.038365         23.56
     1.036775         22.98
     1.036651          0.03
     1.026610          9.01
     1.024343          1.84
     1.018052         21.21
     1.010874         21.62
     1.009292         21.35
     1.009235          0.42
##############################################################################
###                            Comments                                    ###
##############################################################################
###   Diffraction pattern calculated by Match!. 
###   I/Ic calculated by Match!. 
##############################################################################


