##############################################################################
###               Crystal structure data exported by Match!                ###
##############################################################################
###                           Data published by:                           ###
###                                                                        ###
###               COD (Crystallography Open Database)
##############################################################################
data_2102521
_citation_journal_full    'Acta Crystallographica Section B'
_citation_journal_volume  '60(3)'
_citation_page_first  '287'
_citation_page_last   '292'
_citation_year  '2004'
_citation_title  '30 Space-group corrections: two examples of false polymorphism and oneof incorrect interpretation of the fine details of an IR spectrum'
loop_
_publ_author_name
  'Prof. Clemente Dore Augusto'
  'Prof. Marzotto Armando'
_chemical_formula_sum  'C60 H120 Fe6 N12 O24'
_chemical_name_common  'bis(mu!4$-N,N-Diethylcarbamato-O,O',O'',O''')-tetrakis(mu!3$-N,N-diethylcarba-mato-O,O',O'')-hexakis(mu!2$-N,N-diethylcarbamato-O,O')-hexa-iron'
_symmetry_space_group_name_H-M 'C c c a'
_space_group_IT_number 68
_space_group_crystal_system 'orthorhombic'
loop_
_symmetry_equiv_pos_as_xyz
   'x, y, z'
   'x+0.5, y+0.5, z'
   '-x, -y+0.5, z'
   '-x+0.5, -y, z'
   'x, -y+0.5, -z+0.5'
   'x+0.5, -y, -z+0.5'
   '-x, y, -z+0.5'
   '-x+0.5, y+0.5, -z+0.5'
   '-x, -y, -z'
   '-x+0.5, -y+0.5, -z'
   'x, y+0.5, -z'
   'x+0.5, y, -z'
   '-x, y+0.5, z+0.5'
   '-x+0.5, y, z+0.5'
   'x, -y, z+0.5'
   'x+0.5, -y+0.5, z+0.5'
_cell_length_a       20.93900
_cell_length_b       25.24300
_cell_length_c       16.04800
_cell_angle_alpha    90.0000
_cell_angle_beta     90.0000
_cell_angle_gamma    90.0000
_cell_formula_units_Z 4
loop_
_atom_site_label
_atom_site_fract_x
_atom_site_fract_y
_atom_site_fract_z
_atom_site_occupancy
_atom_site_B_iso_or_equiv
fe      0.132   0.204   0.325    1.00000    1.579
fe      0.000   0.161   0.250    1.00000    1.579
o      0.223   0.211   0.282    1.00000    1.579
o      0.128   0.132   0.377    1.00000    1.579
o      0.141   0.271   0.390    1.00000    1.579
o      0.099   0.177   0.209    1.00000    1.579
o      0.030   0.213   0.343    1.00000    1.579
o      0.035   0.101   0.323    1.00000    1.579
n      0.095   0.049   0.404    1.00000    1.579
n      0.148   0.359   0.402    1.00000    1.579
n      0.000   0.250   0.466    1.00000    1.579
n      0.315   0.250   0.250    1.00000    1.579
c      0.086   0.096   0.365    1.00000    1.579
c      0.048   0.004   0.396    1.00000    1.579
c      0.069   -0.030   0.325    1.00000    1.579
c      0.153   0.040   0.453    1.00000    1.579
c      0.139   0.053   0.542    1.00000    1.579
c      0.129   0.316   0.361    1.00000    1.579
c      0.185   0.353   0.480    1.00000    1.579
c      0.138   0.412   0.370    1.00000    1.579
c      0.194   0.431   0.315    1.00000    1.579
c      0.253   0.331   0.466    1.00000    1.579
c      0.000   0.250   0.383    1.00000    1.579
c      0.033   0.209   0.513    1.00000    1.579
c      -0.006   0.162   0.532    1.00000    1.579
c      0.250   0.250   0.250    1.00000    1.579
c      0.350   0.209   0.293    1.00000    1.579
c      0.366   0.164   0.234    1.00000    1.579
_cell_measurement_wavelength    1.541874
_cell_measurement_radiation   'x-rays'
_exptl_crystal_density_diffrn    1.259000
loop_
_pd_peak_d_spacing
_pd_peak_intensity
    12.621500        353.74
    11.371667       1000.00
    10.469500         36.49
     8.058074          0.34
     8.024000         49.60
     7.201234          6.75
     7.182948          2.58
     7.020731          0.01
     6.771450         64.43
     6.368666          0.47
     6.310750          1.48
     6.204182          6.25
     5.685834         11.48
     5.595719          0.05
     5.404796          0.24
     5.234750         20.92
     5.155169         38.38
     5.122104          6.24
     5.094206          0.00
     5.076966          1.74
     4.960402          0.40
     4.835363          0.05
     4.693371          3.71
     4.629770         11.81
     4.482710         33.23
     4.463974          0.27
     4.456705          3.77
     4.412908          0.19
     4.384255          1.60
     4.207167          2.86
     4.186966         35.49
     4.186848          8.29
     4.141508         21.62
     4.029037          0.00
     4.012000          0.25
     4.000884          0.34
     3.963895          2.80
     3.907762          0.25
     3.903761          1.85
     3.893178          0.99
     3.823482          5.64
     3.802007         16.24
     3.793148         10.65
     3.790556          2.05
     3.746346          0.83
     3.726054          0.29
     3.673068          8.99
     3.650823          1.04
     3.644384          0.47
     3.616438         12.48
     3.600617          0.74
     3.591474          0.52
     3.587099          1.24
     3.568435         18.40
     3.510366         12.74
     3.489833          8.24
     3.469764          0.47
     3.445752          0.57
     3.396650          1.71
     3.385725          0.17
     3.363624          7.44
     3.292088          0.30
     3.279319          0.01
     3.269725          4.73
     3.249442         11.57
     3.249386          2.35
     3.221462          5.80
     3.218303          6.66
     3.214487          0.02
     3.212924          0.31
     3.200256          0.00
     3.184333         22.54
     3.160119          0.14
     3.155375          3.57
     3.153369          0.09
     3.147783         12.12
     3.141797          0.80
     3.106233         10.79
     3.102091          0.39
     3.087583          9.57
     3.070166          4.67
     3.053973          0.18
     3.035591          2.78
     3.021145          0.25
     3.000131          1.14
     2.990938          1.95
     2.981775          0.30
     2.975390          0.70
     2.968992          0.35
     2.968551          0.52
     2.960123          4.73
     2.936485          2.40
     2.920885         12.26
     2.903457          4.91
     2.896793          9.06
     2.878176          0.12
     2.864312          0.02
     2.854230          1.07
     2.847482          0.04
     2.842917          2.41
     2.827377          0.19
     2.797859          3.35
     2.795789          0.16
     2.785737          0.00
     2.775996          1.27
     2.760788          2.03
     2.759677          6.38
     2.755289          0.32
     2.748546          0.60
     2.739254          1.58
     2.739155          4.60
     2.702398          3.35
     2.693854          0.01
     2.686199          0.84
     2.686025          0.05
     2.674667          0.87
     2.674110          0.19
     2.664878          1.23
     2.660240          3.62
     2.659206          0.03
     2.652186          1.69
     2.649174          0.04
     2.638576          0.28
     2.633078          0.74
     2.630600          4.77
     2.626769          3.72
     2.617375         11.40
     2.616561          0.91
     2.596964          2.09
     2.591437          0.12
     2.586739          0.11
     2.577585          1.23
     2.568946          2.88
     2.562848         13.90
     2.561052          1.65
     2.547103          0.53
     2.541020          0.46
     2.539053          0.56
     2.538483          0.86
     2.534592          4.02
     2.530779          0.00
     2.530309          0.04
     2.525109          0.33
     2.524300          0.08
     2.512750          3.37
     2.510414          0.11
     2.503509          3.58
     2.493542          1.20
     2.488338          1.50
     2.485428          0.28
     2.480201          0.82
     2.479226          1.84
     2.475553          1.30
     2.466739          1.68
     2.462617          0.20
     2.453978          0.08
     2.450534          0.27
     2.441345          4.36
     2.438175          0.00
     2.433499          1.34
     2.430041          0.81
     2.425781          0.55
     2.417681          0.09
     2.413405          0.56
     2.412076          1.73
     2.407954          3.38
     2.400411          1.54
     2.397194          1.33
     2.394316          0.00
     2.390704          0.04
     2.387352          0.04
     2.381955          1.00
     2.381777          0.89
     2.348561          2.00
     2.346686          0.76
     2.340522          0.08
     2.340468          2.73
     2.340244          2.29
     2.322072          0.20
     2.319073          0.43
     2.316020          1.81
     2.314885          0.32
     2.311281          0.24
     2.306265          0.14
     2.306206          1.06
     2.293782          0.82
     2.292966          8.33
     2.285010          3.65
     2.278974          0.35
     2.274333          1.74
     2.273742          1.19
     2.269722          0.00
     2.267474          0.75
     2.258513          0.71
     2.258457          0.36
     2.257150          0.42
     2.251258          0.09
     2.246887          0.37
     2.245211          0.39
     2.241355          0.00
     2.238611          0.00
     2.237923          0.19
     2.231987          0.92
     2.230477          1.21
     2.228352          0.28
     2.225818          0.01
     2.222398          1.42
     2.220840          1.21
     2.213013          0.15
     2.212458          0.33
     2.206454          3.12
     2.205065          0.20
     2.203117          0.67
     2.201390          1.01
     2.199880          4.39
     2.199700          1.46
     2.194212          0.18
     2.192128          0.00
     2.187608          3.37
     2.183371          2.62
     2.180095          2.92
     2.177367          0.40
     2.170022          2.39
     2.166148          0.58
     2.160171          3.77
     2.159794          0.43
     2.159666          1.52
     2.144258          0.08
     2.141767          2.83
     2.137046          2.85
     2.136571          2.39
     2.136463          0.00
     2.125924          2.35
     2.122889          0.01
     2.117824          0.76
     2.114758          1.12
     2.110552          0.75
     2.108587          0.76
     2.103751          0.07
     2.103583          0.24
     2.101329          3.83
     2.098334          0.38
     2.094905          0.13
     2.093900          0.29
     2.093483          0.00
     2.093424          0.68
     2.092556          0.09
     2.080667          0.44
     2.077134          0.63
     2.072681          1.20
     2.071529          0.63
     2.070754          0.08
     2.068061          0.15
     2.067229          0.34
     2.065667          0.02
     2.062366          0.60
     2.059872          0.90
     2.058298          1.96
     2.053210          0.04
     2.052328          0.02
     2.048764          0.94
     2.045543          0.21
     2.045322          0.72
     2.043326          1.67
     2.040294          1.43
     2.034820          0.00
     2.029608          0.12
     2.028910          0.00
     2.026052          0.27
     2.021652          0.07
     2.021473          0.12
     2.018806          1.58
     2.015115          0.29
     2.014519          1.11
     2.012095          0.58
     2.007781          0.23
     2.006264          1.35
     2.006000          0.06
     2.004606          0.70
     2.002718          2.33
     2.002620          0.31
     2.000442          0.11
##############################################################################
###                            Comments                                    ###
##############################################################################
###   Diffraction pattern calculated by Match!. 
###   I/Ic calculated by Match!. 
###   Space group has been derived from given symmetry operations. 
##############################################################################


