##############################################################################
###               Crystal structure data exported by Match!                ###
##############################################################################
###                           Data published by:                           ###
###                                                                        ###
###               COD (Crystallography Open Database)
##############################################################################
data_5000043
_citation_journal_full    'Zeitschrift fuer Kristallographie, Kristallgeometrie, Kristallphysik, Kristallchemie (145,1977-148,1979)'
_citation_journal_volume  '145'
_citation_page_first  '412'
_citation_page_last   '426'
_citation_year  '1977'
_citation_title  'Verfeinerung der Struktur von Malachit, Cu2 (O H)2 C O3, durch Neutronenbeugung'
loop_
_publ_author_name
  'Zigan F'
  'Joswig W'
  'Schuster H U'
  'Mason S A'
_chemical_formula_sum  'C H2 Cu2 O5'
_chemical_name_mineral  'Malachite'
_chemical_name_common  'Dicopper dihydroxide carbonate'
_symmetry_space_group_name_H-M 'P 1 21/a 1'
_space_group_IT_number 14
_space_group_crystal_system 'monoclinic'
loop_
_symmetry_equiv_pos_as_xyz
   'x, y, z'
   '-x+0.5, y+0.5, -z'
   '-x, -y, -z'
   'x+0.5, -y+0.5, z'
_cell_length_a        9.50200
_cell_length_b       11.97400
_cell_length_c        3.24000
_cell_angle_alpha    90.0000
_cell_angle_beta     98.7500
_cell_angle_gamma    90.0000
_cell_formula_units_Z 4
loop_
_atom_site_label
_atom_site_fract_x
_atom_site_fract_y
_atom_site_fract_z
_atom_site_occupancy
_atom_site_B_iso_or_equiv
cu      0.498   0.288   0.892    1.00000    1.000
cu      0.232   0.393   0.388    1.00000    1.000
o      0.132   0.136   0.342    1.00000    1.000
o      0.333   0.236   0.450    1.00000    1.000
o      0.334   0.056   0.631    1.00000    1.000
o      0.094   0.352   0.919    1.00000    1.000
o      0.377   0.416   0.860    1.00000    1.000
c      0.266   0.141   0.473    1.00000    1.000
h      0.017   0.405   0.844    1.00000    1.000
h      0.410   0.492   0.830    1.00000    1.000
_cell_measurement_wavelength    1.541874
_cell_measurement_radiation   'x-rays'
_exptl_crystal_density_diffrn    4.030000
_exptl_crystal_density_meas      4.049000
loop_
_pd_peak_d_spacing
_pd_peak_intensity
     7.389652         72.43
     5.987000        482.45
     5.048407        679.06
     4.695705         47.93
     4.371574          1.68
     3.694826        679.10
     3.673350        177.98
     3.202291         17.59
     3.093572         18.83
     3.075647          2.07
     3.041159         12.40
     3.028675         94.79
     2.993500        102.90
     2.855563       1000.00
     2.852116         72.50
     2.823743        139.14
     2.817787        121.08
     2.810092         29.23
     2.777669        430.94
     2.774131         74.33
     2.609359          0.12
     2.577404         21.18
     2.524204        417.23
     2.497751        104.44
     2.488288         21.25
     2.476113        211.97
     2.463217         87.84
     2.424810        175.90
     2.382413         52.07
     2.347853        118.62
     2.345693         14.63
     2.322398         14.06
     2.320542        120.63
     2.303980          1.76
     2.288141        132.90
     2.252414         79.29
     2.186814        114.72
     2.185787         71.71
     2.180455          0.45
     2.163526         24.99
     2.133375        108.80
     2.104104         17.84
     2.082586         59.71
     2.076222        102.45
     2.066232         43.05
     2.054626         99.15
     2.047827          9.43
     2.023692         10.79
     2.018520          6.64
     1.995667         46.66
     1.969484        128.28
     1.952079         64.59
     1.937615        115.43
     1.917827         34.97
     1.913533        118.19
     1.907980          0.01
     1.902061         63.05
     1.887117         66.18
     1.855591         15.35
     1.848430          0.34
     1.847413          0.15
     1.846361          0.95
     1.836675         26.64
     1.834935          1.43
     1.822009         44.65
     1.792156         68.10
     1.769450          5.20
     1.750440          2.55
     1.721685          2.34
     1.721408          1.49
     1.711208          4.05
     1.706040          3.66
     1.699504         14.19
     1.696890         27.79
     1.693691         14.29
     1.690732          1.06
     1.690180        161.17
     1.682884         53.72
     1.682802         22.57
     1.676535          2.96
     1.670655        102.57
     1.643861         72.88
     1.635782         34.30
     1.617616        116.23
     1.607249          0.44
     1.605102         36.85
     1.601146          8.40
     1.594841         13.95
     1.591211          5.07
     1.591023          4.14
     1.587020        174.73
     1.577345          2.49
     1.572757        115.45
     1.565235          2.52
     1.563513          5.48
     1.556385          2.93
     1.553820          4.32
     1.552031          0.96
     1.546786          6.04
     1.542490         69.68
     1.537824          2.64
     1.527453         41.95
     1.523241         32.17
     1.520580         10.02
     1.514338         39.73
     1.510333          3.91
     1.510089         42.17
     1.508803         24.02
     1.506709         32.54
     1.504178          0.68
     1.501089         50.86
     1.500847          1.85
     1.499086         20.56
     1.496750          3.92
     1.491481         12.23
     1.487474         12.56
     1.486034          2.08
     1.478096         27.23
     1.478081         50.53
     1.477930         81.00
     1.475530          3.99
     1.475303          0.21
     1.473254         54.72
     1.467430          5.26
     1.457191         12.95
     1.454193          6.53
     1.449603          1.31
     1.441881          0.70
     1.439096          5.53
     1.436792          2.07
     1.429234          3.49
     1.427782         10.78
     1.426058         25.61
     1.424557         12.48
     1.423125          9.87
     1.422516          0.01
     1.422312         45.89
     1.417738         50.38
     1.411871          0.02
     1.408893          0.01
     1.407543         28.62
     1.407392         19.83
     1.405046         13.84
     1.403368          0.15
     1.398955          3.41
     1.388834          1.52
     1.387065         67.93
     1.382548          4.31
     1.369437          5.29
     1.367762          4.71
     1.362524         61.43
     1.357059         13.07
     1.356882         26.52
     1.355948         17.47
     1.354428         53.18
     1.350342         13.39
     1.344356          1.02
     1.341663         14.98
     1.340404          2.55
     1.336565         11.16
     1.333287         19.94
     1.331049          0.71
     1.329971          1.05
     1.328752          6.94
     1.325682          1.57
     1.325326          5.01
     1.323977          0.14
     1.322601          4.37
     1.320645         21.21
     1.317292         14.56
     1.313828          6.64
     1.312820          2.24
     1.312265          5.24
     1.311402          0.56
     1.310203          1.13
     1.309162         14.76
     1.304680          0.74
     1.302729          0.15
     1.297188          3.63
     1.295316         30.48
     1.290726          0.33
     1.288702          4.85
     1.284826         18.12
     1.284676          1.24
     1.280916          2.07
     1.280197          5.11
     1.280057          1.93
     1.274553          6.15
     1.274546          2.74
     1.271709         27.51
     1.270665          1.94
     1.264700          8.69
     1.262102          0.62
     1.260725          1.66
     1.257630         25.34
     1.254790          9.25
     1.248875          0.21
     1.245110          2.21
     1.244144          0.17
     1.240108          7.23
     1.238056          0.00
     1.231609          0.05
     1.231491         16.06
     1.229845         10.17
     1.228625          3.08
     1.227494          1.52
     1.226830         19.63
     1.226363          1.78
     1.224450         15.79
     1.224293          4.70
     1.219746          5.89
     1.219218         11.90
     1.216004          7.91
     1.215509          1.36
     1.214483          0.09
     1.212405          1.97
     1.210459          8.20
     1.210333          3.87
     1.209294          2.14
     1.209201         21.87
     1.209175         18.04
     1.208389          7.10
     1.205974          0.16
     1.200506         12.90
     1.198595          3.36
     1.197400          7.58
     1.191206          5.47
     1.187785          0.11
     1.182476          0.05
     1.176122          3.96
     1.173926         21.53
     1.172847          1.08
     1.172683          5.90
     1.171980          6.44
     1.170549          4.99
     1.170467          0.01
     1.169713          0.72
     1.168953         16.88
     1.168325          7.49
     1.167095         11.83
     1.165070         18.72
     1.162784         32.77
     1.161886          0.73
     1.161199          1.97
     1.160737          0.09
     1.160271          0.01
     1.157517          1.48
     1.157236          2.02
     1.155322          3.86
     1.154757          5.17
     1.153321          0.12
     1.151990          4.99
     1.149630         11.35
     1.144525          0.01
     1.144070          0.22
     1.142750          3.70
     1.139519          7.60
     1.137270          0.61
     1.137166          2.21
     1.134635         18.53
     1.131076          2.27
     1.127468          0.03
     1.127414          0.00
     1.126224          3.42
     1.126207         10.33
     1.121647          0.36
     1.121558          0.27
     1.120698          2.69
     1.118379          2.19
     1.116234          0.04
     1.115663          0.04
     1.115322          4.20
     1.114563          1.67
     1.113415          1.34
     1.110444          1.26
     1.106724          0.30
     1.106021          0.34
     1.105907         10.88
     1.104249         11.83
     1.102007         16.76
     1.099782          1.16
     1.099268          7.51
     1.096391         24.31
     1.096125          3.70
     1.095433          9.64
     1.094030          1.58
     1.093407          0.41
     1.092893          1.60
     1.092746          1.83
     1.090228          2.01
     1.085677          0.51
     1.083886          2.80
     1.082228         17.36
     1.081763          7.71
     1.081306          0.86
     1.077973          6.45
     1.076888          2.53
     1.074827          5.65
     1.074169          0.27
     1.074108          0.16
     1.073338          7.98
     1.072559         30.93
     1.067430          0.00
     1.067347         19.96
     1.067261          0.01
     1.066687         25.54
     1.063386          0.12
     1.063214          1.04
     1.062222          8.78
     1.062067          0.03
     1.060425          0.87
     1.059879          1.65
     1.059187          0.60
     1.057290          0.24
     1.056838          0.68
     1.056669          6.65
     1.055665          3.59
     1.055111         18.43
     1.054092          0.09
     1.052052          0.71
     1.051709          1.60
     1.050859          3.06
     1.049356          3.87
     1.047675          0.01
     1.045926          0.05
     1.045078          1.34
     1.044538          7.08
     1.044513          5.45
     1.042779          0.98
     1.041775          0.60
     1.041293          0.09
     1.040301          8.89
     1.039709          0.26
     1.039550          0.32
     1.039014          1.01
     1.038847          1.20
     1.038420          3.33
     1.038111          1.80
     1.035936          1.72
     1.035848          3.46
     1.033666          0.24
     1.033116          0.03
     1.032708          0.98
     1.031191          9.62
     1.030628          0.30
     1.029960          2.60
     1.028889          0.04
     1.028160          3.15
     1.028082          5.35
     1.027993          0.71
     1.027475          3.78
     1.027313          0.00
     1.026492          5.82
     1.025216          0.01
     1.024498          9.84
     1.023913          4.18
     1.023283          2.22
     1.020675          1.73
     1.020190         12.24
     1.019082          0.04
     1.017679          0.42
     1.017148          3.88
     1.016996         12.55
     1.015225          2.82
     1.013720          2.42
     1.013313          0.01
     1.012748          7.36
     1.011846          1.70
     1.010997          5.17
     1.009681          2.50
     1.009558          0.13
     1.009260          0.53
     1.009068          0.01
     1.008914         22.97
     1.008251          3.54
     1.006777          2.25
##############################################################################
###                            Comments                                    ###
##############################################################################
###   natural
###   Diffraction pattern calculated by Match!. 
###   I/Ic calculated by Match!. 
##############################################################################


