##############################################################################
###               Crystal structure data exported by Match!                ###
##############################################################################
###                           Data published by:                           ###
###                                                                        ###
###               COD (Crystallography Open Database)
##############################################################################
data_2107340
_citation_journal_full    'Acta Crystallographica B (24,1968-38,1982)'
_citation_journal_volume  '34'
_citation_page_first  '3730'
_citation_page_last   '3731'
_citation_year  '1978'
_citation_title  'The hydrate of ammonium ferrocyanide and possible ionic transportmechanism'
loop_
_publ_author_name
  'Morosin B.'
_chemical_formula_sum  'C6 H19 Fe N10 O1.5'
_chemical_name_common  '(N H4)4 (Fe (C N)6) (H2 O)1.5'
_symmetry_space_group_name_H-M 'I a -3 d'
_space_group_IT_number 230
_space_group_crystal_system 'cubic'
loop_
_symmetry_equiv_pos_as_xyz
   'x, y, z'
   'x+0.5, y+0.5, z+0.5'
   '-y+0.25, x+0.75, z+0.25'
   '-y+0.75, x+0.25, z+0.75'
   '-x, -y+0.5, z'
   '-x+0.5, -y, z+0.5'
   'y+0.25, -x+0.25, z+0.75'
   'y+0.75, -x+0.75, z+0.25'
   'x+0.25, -z+0.25, y+0.75'
   'x+0.75, -z+0.75, y+0.25'
   'x, -y, -z+0.5'
   'x+0.5, -y+0.5, -z'
   'x+0.75, z+0.25, -y+0.25'
   'x+0.25, z+0.75, -y+0.75'
   'z+0.75, y+0.25, -x+0.25'
   'z+0.25, y+0.75, -x+0.75'
   '-x+0.5, y, -z'
   '-x, y+0.5, -z+0.5'
   '-z+0.25, y+0.75, x+0.25'
   '-z+0.75, y+0.25, x+0.75'
   'z, x, y'
   'z+0.5, x+0.5, y+0.5'
   'y, z, x'
   'y+0.5, z+0.5, x+0.5'
   '-y, -z+0.5, x'
   '-y+0.5, -z, x+0.5'
   'z, -x, -y+0.5'
   'z+0.5, -x+0.5, -y'
   '-y+0.5, z, -x'
   '-y, z+0.5, -x+0.5'
   '-z, -x+0.5, y'
   '-z+0.5, -x, y+0.5'
   '-z+0.5, x, -y'
   '-z, x+0.5, -y+0.5'
   'y, -z, -x+0.5'
   'y+0.5, -z+0.5, -x'
   'y+0.75, x+0.25, -z+0.25'
   'y+0.25, x+0.75, -z+0.75'
   '-y+0.25, -x+0.25, -z+0.25'
   '-y+0.75, -x+0.75, -z+0.75'
   '-x+0.25, z+0.75, y+0.25'
   '-x+0.75, z+0.25, y+0.75'
   '-x+0.25, -z+0.25, -y+0.25'
   '-x+0.75, -z+0.75, -y+0.75'
   'z+0.25, -y+0.25, x+0.75'
   'z+0.75, -y+0.75, x+0.25'
   '-z+0.25, -y+0.25, -x+0.25'
   '-z+0.75, -y+0.75, -x+0.75'
   '-x, -y, -z'
   '-x+0.5, -y+0.5, -z+0.5'
   'y+0.25, -x+0.75, -z+0.25'
   'y+0.75, -x+0.25, -z+0.75'
   'x, y+0.5, -z'
   'x+0.5, y, -z+0.5'
   '-y+0.25, x+0.25, -z+0.75'
   '-y+0.75, x+0.75, -z+0.25'
   '-x+0.25, z+0.25, -y+0.75'
   '-x+0.75, z+0.75, -y+0.25'
   '-x, y, z+0.5'
   '-x+0.5, y+0.5, z'
   '-x+0.75, -z+0.25, y+0.25'
   '-x+0.25, -z+0.75, y+0.75'
   '-z+0.75, -y+0.25, x+0.25'
   '-z+0.25, -y+0.75, x+0.75'
   'x+0.5, -y, z'
   'x, -y+0.5, z+0.5'
   'z+0.25, -y+0.75, -x+0.25'
   'z+0.75, -y+0.25, -x+0.75'
   '-z, -x, -y'
   '-z+0.5, -x+0.5, -y+0.5'
   '-y, -z, -x'
   '-y+0.5, -z+0.5, -x+0.5'
   'y, z+0.5, -x'
   'y+0.5, z, -x+0.5'
   '-z, x, y+0.5'
   '-z+0.5, x+0.5, y'
   'y+0.5, -z, x'
   'y, -z+0.5, x+0.5'
   'z, x+0.5, -y'
   'z+0.5, x, -y+0.5'
   'z+0.5, -x, y'
   'z, -x+0.5, y+0.5'
   '-y, z, x+0.5'
   '-y+0.5, z+0.5, x'
   '-y+0.75, -x+0.25, z+0.25'
   '-y+0.25, -x+0.75, z+0.75'
   'y+0.25, x+0.25, z+0.25'
   'y+0.75, x+0.75, z+0.75'
   'x+0.25, -z+0.75, -y+0.25'
   'x+0.75, -z+0.25, -y+0.75'
   'x+0.25, z+0.25, y+0.25'
   'x+0.75, z+0.75, y+0.75'
   '-z+0.25, y+0.25, -x+0.75'
   '-z+0.75, y+0.75, -x+0.25'
   'z+0.25, y+0.25, x+0.25'
   'z+0.75, y+0.75, x+0.75'
_cell_length_a       18.26100
_cell_length_b       18.26100
_cell_length_c       18.26100
_cell_angle_alpha    90.0000
_cell_angle_beta     90.0000
_cell_angle_gamma    90.0000
_cell_formula_units_Z 16
loop_
_atom_site_label
_atom_site_fract_x
_atom_site_fract_y
_atom_site_fract_z
_atom_site_occupancy
_atom_site_B_iso_or_equiv
o      0.000   0.250   0.125    1.00000    1.000
fe      0.000   0.000   0.000    1.00000    1.000
c      0.025   0.465   0.095    1.00000    1.000
n      0.125   0.125   0.125    1.00000    1.000
n      0.040   0.444   0.152    1.00000    1.000
n      0.125   0.207   0.457    1.00000    1.000
_cell_measurement_wavelength    1.541874
_cell_measurement_radiation   'x-rays'
_exptl_crystal_density_diffrn    1.273000
loop_
_pd_peak_d_spacing
_pd_peak_intensity
     7.455022          1.41
     6.456238       1000.00
     4.880457          5.22
     4.565250        150.25
     4.083284          3.90
     3.893258          1.82
     3.727511        229.83
     3.581277         19.62
     3.333987        127.02
     3.228119         21.45
     2.962325        347.79
     2.887318        137.36
     2.817733         18.35
     2.692438         35.07
     2.635748          3.31
     2.582495         13.03
     2.532345         30.25
     2.485007         66.53
     2.440229        177.85
     2.319149         13.18
     2.282625         20.94
     2.247774          7.72
     2.214471          0.41
     2.182607          6.56
     2.152079         53.41
     2.122798          7.58
     2.067651         30.39
     2.041642         64.01
     1.992438          1.49
     1.969134         15.59
     1.946629         27.48
     1.924878          0.49
     1.883478         11.11
     1.863755         63.52
     1.844640          1.90
     1.826100          0.27
     1.808108          8.73
     1.790638         35.97
     1.773665         11.43
     1.741118          5.26
     1.710299          1.62
     1.695491         11.50
     1.681061         19.56
     1.666994         74.44
     1.653273          1.28
     1.626819          3.36
     1.614060         18.65
     1.577510          4.35
     1.565868         26.42
     1.554480          2.73
     1.543336          0.02
     1.532429          1.15
     1.521750          6.05
     1.511291          5.21
     1.501045          0.92
     1.491004          4.96
     1.481163         67.56
     1.471513          2.39
     1.452767          4.35
     1.443659         22.20
     1.434720          1.42
     1.425945          1.00
     1.417328         11.23
     1.408867         25.20
     1.400555          2.52
     1.384363          3.25
     1.376475          9.97
     1.368720          0.56
     1.361095          2.18
     1.353595          5.76
     1.346219         18.80
     1.338961          1.39
     1.324792          0.57
     1.317874          7.77
     1.311063          1.27
     1.304357          0.02
     1.297753          1.05
     1.291248         26.98
     1.284839          0.49
     1.272304          1.37
     1.266173          6.00
     1.260129          0.56
     1.254171          4.12
     1.248296          2.41
     1.242504         35.32
     1.236791          3.38
     1.225598          3.87
     1.220114          6.05
     1.214704          0.17
     1.204095          4.16
     1.198893          3.91
     1.193759          2.18
     1.188690          0.46
     1.183685          0.71
     1.173862          2.19
     1.169041          0.94
     1.164279          2.50
     1.159575         18.61
     1.154927          1.27
     1.145797          1.11
     1.141312          0.22
     1.136880          0.01
     1.132499          0.71
##############################################################################
###                            Comments                                    ###
##############################################################################
###   Diffraction pattern calculated by Match!. 
###   I/Ic calculated by Match!. 
##############################################################################


