##############################################################################
###               Crystal structure data exported by Match!                ###
##############################################################################
###                           Data published by:                           ###
###                                                                        ###
###               COD (Crystallography Open Database)
##############################################################################
data_2107350
_citation_journal_full    'Acta Crystallographica B (24,1968-38,1982)'
_citation_journal_volume  '28'
_citation_page_first  '2542'
_citation_page_last   '2547'
_citation_year  '1972'
_citation_title  'Etude structurale de la serie des hexacyanoferrates(II,III) d'hydrogene:H3+x (Fe(II)x Fe(III)1-x (C N)6)(H2 O)y. III. La phase rhomboedr. R,H(II)0.6 Fe(II)3.6 Fe(III)0.4 (C N)6) (H2 O)1.6 et...'
loop_
_publ_author_name
  'Haser R.'
  'Pierrot M.'
_chemical_formula_sum  'C6 H6.8 Fe N6 O1.6'
_chemical_name_common  'H3.6 (Fe (C N)6) (H2 O)1.6'
_symmetry_space_group_name_H-M 'R -3 m'
_space_group_IT_number 166
_space_group_crystal_system 'trigonal (hexagonal axes)'
loop_
_symmetry_equiv_pos_as_xyz
   'x, y, z'
   'x+0.66667, y+0.33333, z+0.33333'
   'x+0.33333, y+0.66667, z+0.66667'
   '-y, x-y, z'
   '-y+0.66667, x-y+0.33333, z+0.33333'
   '-y+0.33333, x-y+0.66667, z+0.66667'
   '-x+y, -x, z'
   '-x+y+0.66667, -x+0.33333, z+0.33333'
   '-x+y+0.33333, -x+0.66667, z+0.66667'
   'x-y, -y, -z'
   'x-y+0.66667, -y+0.33333, -z+0.33333'
   'x-y+0.33333, -y+0.66667, -z+0.66667'
   '-x, -x+y, -z'
   '-x+0.66667, -x+y+0.33333, -z+0.33333'
   '-x+0.33333, -x+y+0.66667, -z+0.66667'
   'y, x, -z'
   'y+0.66667, x+0.33333, -z+0.33333'
   'y+0.33333, x+0.66667, -z+0.66667'
   '-x, -y, -z'
   '-x+0.66667, -y+0.33333, -z+0.33333'
   '-x+0.33333, -y+0.66667, -z+0.66667'
   'y, -x+y, -z'
   'y+0.66667, -x+y+0.33333, -z+0.33333'
   'y+0.33333, -x+y+0.66667, -z+0.66667'
   'x-y, x, -z'
   'x-y+0.66667, x+0.33333, -z+0.33333'
   'x-y+0.33333, x+0.66667, -z+0.66667'
   '-x+y, y, z'
   '-x+y+0.66667, y+0.33333, z+0.33333'
   '-x+y+0.33333, y+0.66667, z+0.66667'
   'x, x-y, z'
   'x+0.66667, x-y+0.33333, z+0.33333'
   'x+0.33333, x-y+0.66667, z+0.66667'
   '-y, -x, z'
   '-y+0.66667, -x+0.33333, z+0.33333'
   '-y+0.33333, -x+0.66667, z+0.66667'
_cell_length_a       11.50000
_cell_length_b       11.50000
_cell_length_c       34.35000
_cell_angle_alpha    90.0000
_cell_angle_beta     90.0000
_cell_angle_gamma   120.0000
_cell_formula_units_Z 15
loop_
_atom_site_label
_atom_site_fract_x
_atom_site_fract_y
_atom_site_fract_z
_atom_site_occupancy
_atom_site_B_iso_or_equiv
o      0.133   0.267   0.552    1.00000    1.000
fe      0.000   0.000   0.334    1.00000    1.000
n      0.117   0.233   0.391    1.00000    1.000
fe      0.000   0.000   0.168    1.00000    1.000
c      -0.075   -0.150   0.305    1.00000    1.000
n      0.123   0.246   0.219    1.00000    1.000
c      0.077   0.154   0.368    1.00000    1.000
c      0.081   0.161   0.032    1.00000    1.000
c      0.075   0.151   0.200    1.00000    1.000
n      -0.133   -0.265   0.115    1.00000    1.000
o      0.000   0.000   0.539    1.00000    1.000
c      -0.080   -0.160   0.134    1.00000    1.000
fe      0.000   0.000   0.000    1.00000    1.000
n      0.125   0.250   0.053    1.00000    1.000
n      -0.125   -0.251   0.283    1.00000    1.000
_cell_measurement_wavelength    1.541874
_cell_measurement_radiation   'x-rays'
_exptl_crystal_density_diffrn    1.504000
loop_
_pd_peak_d_spacing
_pd_peak_intensity
    11.449999         70.76
     9.565359        103.52
     8.615579         96.16
     6.503643         58.60
     5.750000       1000.00
     5.725000         84.70
     5.655068         63.17
     5.138461         46.87
     4.928131          2.50
     4.782679         18.03
     4.401825         13.87
     4.307789          8.45
     4.056996        764.91
     4.031881          7.65
     3.942917         15.89
     3.816666          6.16
     3.741858          1.51
     3.676981          4.00
     3.495226          2.33
     3.447587          2.34
     3.319764          0.14
     3.301189         11.44
     3.251822          6.92
     3.247280          1.54
     3.188453          3.46
     3.179906          8.90
     2.986718          4.58
     2.979689          1.62
     2.875000        175.25
     2.871860        898.07
     2.862500         36.80
     2.830531         10.30
     2.827534          4.90
     2.788442          0.38
     2.753323          1.62
     2.727166          0.59
     2.645569          6.03
     2.629530          5.47
     2.569230         53.54
     2.562816          1.15
     2.562522         68.94
     2.553950          2.19
     2.537346          7.00
     2.504812          8.82
     2.483308          1.53
     2.464066          1.72
     2.407068          6.34
     2.403384         21.96
     2.391340          1.96
     2.382340          3.97
     2.340833          5.63
     2.334071          8.14
     2.323034          4.14
     2.296385         17.47
     2.290000          0.45
     2.279781          0.02
     2.264865          0.02
     2.220366          0.20
     2.208003          0.00
     2.200913          0.81
     2.173296         34.52
     2.168059          2.33
     2.167881        202.68
     2.162683          1.22
     2.153895          5.24
     2.152573         14.40
     2.135174          4.76
     2.127485          3.78
     2.098668          0.17
     2.071301          4.31
     2.068953          4.75
     2.055482          9.94
     2.031821         94.81
     2.028498         30.02
     2.017026          8.67
     2.015941          0.82
     1.988518          0.65
     1.980244          0.46
     1.978597          0.07
     1.971458          0.94
     1.946764         13.04
     1.940347          2.14
     1.916667        132.46
     1.913072          0.01
     1.909375          4.59
     1.908333         18.87
     1.902407          3.50
     1.890365          1.59
     1.888579          7.02
     1.885023          4.28
     1.879310          0.11
     1.872321          1.52
     1.870929          0.61
     1.864890          2.24
     1.845609          1.14
     1.843947          7.15
     1.838490          0.97
     1.834391          4.31
     1.817514         13.65
     1.815239          2.62
     1.812081          1.66
     1.811190          7.36
     1.806902          0.00
     1.791225          3.56
     1.786321          0.49
     1.780316          2.50
     1.779119          0.40
     1.778824          0.00
     1.757304          1.56
     1.751156          0.10
     1.747613          1.33
     1.731028          1.38
     1.730938        130.21
     1.728289          2.21
     1.723793          1.05
     1.723116          3.85
     1.712820          0.71
     1.699364          0.33
     1.695090          1.99
     1.692517          0.11
     1.680571          0.07
     1.679316          0.57
     1.672089          3.26
     1.659882          2.19
     1.654460         17.05
     1.651190          1.85
     1.650594          3.01
     1.642710          0.09
     1.635714          0.05
     1.635441          1.86
     1.630828          9.35
     1.629908          0.90
     1.629681          1.70
     1.625911          2.69
     1.623640          1.42
     1.611975          0.85
     1.608326          1.91
     1.594763         15.78
     1.594226         33.93
     1.592690          3.29
     1.592620          0.44
     1.590556          0.22
     1.589953         65.07
     1.586521          0.38
     1.579516          3.08
     1.576396          5.80
     1.573294          0.61
     1.568945          0.56
     1.564564          3.14
     1.562541          0.86
     1.553126          0.24
     1.552136          3.65
     1.546424          2.27
     1.542522          0.06
     1.536272         87.90
     1.532986          2.34
     1.529847          0.21
     1.522161          2.99
     1.517295          0.00
##############################################################################
###                            Comments                                    ###
##############################################################################
###   Diffraction pattern calculated by Match!. 
###   I/Ic calculated by Match!. 
##############################################################################


