##############################################################################
###               Crystal structure data exported by Match!                ###
##############################################################################
###                           Data published by:                           ###
###                                                                        ###
###               COD (Crystallography Open Database)
##############################################################################
data_1518188
_citation_journal_full    'Revue de Chimie Minerale'
_citation_journal_volume  '24'
_citation_page_first  '56'
_citation_page_last   '67'
_citation_year  '1987'
_citation_title  'Etude cristallochimique de trisoxalato-metallates (III) de cationsmonovalents. II. Cas de (NH4)3[Fe(C2O4)3],3H2O'
loop_
_publ_author_name
  'Merrachi El Houssine'
  'Mentzen Bernard F.'
  'Chassagneux Fernand'
  'Bouix Jean'
_chemical_formula_sum  'C6 H18 Fe N3 O15'
_chemical_name_common  'Ammonium iron(III) oxalate trihydrate'
_symmetry_space_group_name_H-M 'P 1 21/c 1'
_space_group_IT_number 14
_space_group_crystal_system 'monoclinic'
loop_
_symmetry_equiv_pos_as_xyz
   'x, y, z'
   '-x, y+0.5, -z+0.5'
   '-x, -y, -z'
   'x, -y+0.5, z+0.5'
_cell_length_a        7.79100
_cell_length_b       20.12400
_cell_length_c       10.47800
_cell_angle_alpha    90.0000
_cell_angle_beta    106.8700
_cell_angle_gamma    90.0000
_cell_formula_units_Z 4
loop_
_atom_site_label
_atom_site_fract_x
_atom_site_fract_y
_atom_site_fract_z
_atom_site_occupancy
_atom_site_B_iso_or_equiv
fe      0.228   0.131   0.247    1.00000    2.842
o      0.160   0.064   0.366    1.00000    3.608
o      0.459   0.126   0.391    1.00000    3.971
o      0.257   0.020   0.570    1.00000    4.626
o      0.583   0.082   0.592    1.00000    5.353
o      0.336   0.078   0.125    1.00000    3.434
o      0.004   0.108   0.101    1.00000    3.434
o      0.263   0.032   -0.076    1.00000    4.074
o      -0.091   0.059   -0.097    1.00000    3.750
o      0.093   0.198   0.318    1.00000    4.982
o      0.307   0.214   0.175    1.00000    4.105
o      0.036   0.305   0.323    1.00000    10.422
o      0.267   0.324   0.168    1.00000    6.332
c      0.278   0.054   0.478    1.00000    3.505
c      0.458   0.090   0.491    1.00000    3.782
c      0.226   0.060   0.015    1.00000    3.150
c      0.027   0.077   0.003    1.00000    3.150
c      0.113   0.258   0.289    1.00000    5.921
c      0.239   0.268   0.202    1.00000    4.413
o      0.530   0.220   0.004    0.50000    6.900
n      0.600   0.196   0.072    0.50000    8.803
o      0.735   0.082   0.245    0.50000    4.003
n      0.738   0.099   0.251    0.50000    5.598
o      0.829   0.206   0.464    1.00000    14.496
n      0.548   0.093   -0.146    1.00000    5.621
n      -0.033   0.081   0.653    1.00000    4.137
_cell_measurement_wavelength    1.541874
_cell_measurement_radiation   'x-rays'
_cell_measurement_temperature    293.000000
_exptl_crystal_density_diffrn    1.909000
loop_
_pd_peak_d_spacing
_pd_peak_intensity
    10.062000         54.65
     8.974718          0.07
     7.455719         60.87
     7.102532        490.28
     6.991322       1000.00
     6.645835        566.28
     5.990417         11.34
     5.768781          0.52
     5.575413          4.30
     5.118553          3.11
     5.031000         89.60
     5.013543         16.49
     4.986731         76.15
     4.865244          5.04
     4.864842          0.47
     4.856683         57.19
     4.729003        124.73
     4.684141          0.32
     4.496727          2.71
     4.487359        208.23
     4.380086          1.50
     4.170355          8.70
     4.155039         51.60
     4.093394          1.05
     4.015845          0.17
     3.938410          3.40
     3.811180         11.62
     3.735136          1.61
     3.727860         43.78
     3.693558         32.54
     3.665498         11.53
     3.646435          0.66
     3.632875        174.75
     3.621329        103.91
     3.551266         52.95
     3.541699          1.00
     3.520429         17.13
     3.497379          0.15
     3.495661          2.67
     3.494195        205.81
     3.467767          0.30
     3.467331         29.62
     3.396523          6.46
     3.359553          1.50
     3.354000         78.95
     3.322917          4.89
     3.297194          0.10
     3.260076          4.46
     3.258490          0.78
     3.235507         81.00
     3.203690          0.56
     3.180775         72.03
     3.171942         33.02
     3.163846          0.34
     3.138572          0.82
     3.117224         11.59
     3.101187        140.14
     3.073134          0.39
     3.065168         27.29
     3.058750          0.04
     3.052688         63.41
     3.027992          5.66
     2.995209          4.73
     2.991573          0.03
     2.977330          0.76
     2.919037          1.32
     2.890908          0.34
     2.884390         89.25
     2.843002          3.57
     2.833037          2.28
     2.831055         20.09
     2.793893          6.00
     2.787706          4.83
     2.783982         10.26
     2.763517          4.43
     2.761411          0.19
     2.739323         23.07
     2.734953          0.63
     2.721321          7.86
     2.702306         25.57
     2.700588          9.96
     2.682358          3.70
     2.666221          0.47
     2.661543          4.97
     2.649808          1.47
     2.646308         31.70
     2.623720         31.67
     2.617610         39.06
     2.616476          0.56
     2.594637          0.00
     2.573164         25.83
     2.571327          0.09
     2.559277         12.45
     2.556396          1.61
     2.544937          1.07
     2.539113          8.52
     2.537782         18.42
     2.532263          0.51
     2.526233          0.32
     2.519141          7.27
     2.515500          4.04
     2.512289          0.45
     2.506771          0.07
     2.506559          3.17
     2.493935          5.27
     2.493366         15.73
     2.487546          0.27
     2.485240          0.02
     2.483024          0.22
     2.475054         48.24
     2.466502         18.00
     2.461936         22.09
     2.461676          2.51
     2.439893          1.25
     2.437608         18.43
     2.432622          0.21
     2.432421          6.25
     2.428342          0.97
     2.423194          0.03
     2.419777          1.11
     2.415041          8.01
     2.412734          0.87
     2.403489          0.51
     2.383495          4.46
     2.379448          4.95
     2.374686          9.87
     2.368855          2.36
     2.367511          3.03
     2.364501          4.28
     2.348166          0.00
     2.342071         27.27
     2.331153         25.45
     2.330441         21.61
     2.321314          0.32
     2.316666          2.99
     2.310189          0.20
     2.305899          0.51
     2.286889          5.31
     2.285602          2.83
     2.279051          0.10
     2.276533          0.73
     2.271944          1.91
     2.268653          1.03
     2.266780          2.33
     2.249536          0.42
     2.248364         19.52
     2.243679          1.56
     2.234500          0.06
     2.228201          0.66
     2.226719          1.28
     2.215278          0.20
     2.215204         54.50
     2.211171          1.38
     2.208521          5.36
     2.207510         75.64
     2.193679          2.05
     2.191692          1.23
     2.190043         36.53
     2.182396          0.00
     2.180656          0.18
     2.179537          0.00
     2.179462          1.15
     2.178809          7.90
     2.147482         37.03
     2.144882         10.87
     2.142100         35.96
     2.141756         20.78
     2.141480          1.56
     2.139672          1.52
     2.133515          0.47
     2.131115          0.85
     2.127809          0.14
     2.126906          0.05
     2.114593          0.61
     2.110948          2.88
     2.094824          0.01
     2.085178          3.56
     2.083885          1.54
     2.083822          1.41
     2.083566          1.20
     2.083313          0.02
     2.081896          0.14
     2.079117          0.23
     2.077520          3.49
     2.064373          0.12
     2.062991          0.08
     2.059727          0.88
     2.058965          2.08
     2.052148          1.61
     2.051094          0.32
     2.050850          0.55
     2.046697         20.96
     2.042108          1.77
     2.031751          3.48
     2.031704         13.64
     2.027434          8.24
     2.024429          0.20
     2.018483          0.26
     2.012400          0.82
     2.009878          5.16
     2.009819          0.09
     2.009307          1.38
     2.007923          1.13
     2.006947          4.53
     1.999815          3.81
     1.999588          0.02
     1.997041         13.57
     1.996806          0.27
     1.995533          0.15
     1.992879          7.81
     1.988695         15.74
     1.978488          1.77
     1.973053         12.01
     1.969205          0.10
     1.968179          0.94
     1.966735         12.68
     1.947014          0.07
     1.942872          0.38
     1.941851          0.90
     1.940711          0.07
     1.937500          0.88
     1.935040          2.76
     1.934918          0.00
     1.934083          0.00
     1.933878          3.15
     1.931749          0.23
     1.927380          1.41
     1.926084         17.51
     1.925262          1.66
     1.924811          6.90
     1.922927          2.22
     1.922737          8.83
     1.921391          0.05
     1.917517          0.00
     1.914160          7.33
     1.912801          0.11
     1.905590          4.33
     1.903110          1.36
     1.901395          0.82
     1.889378          0.16
     1.887464          0.54
     1.881503          1.41
     1.881016          0.04
     1.880107          0.70
     1.876343          0.19
     1.875723          6.06
     1.867762          0.49
     1.867568          0.05
     1.864258          1.58
     1.864100          1.44
     1.863930         13.78
     1.862873          0.64
     1.860713          0.16
     1.860330          0.49
     1.859600          0.03
     1.858471          2.29
     1.858381          1.54
     1.858198         13.83
     1.857014          0.86
     1.855986          0.46
     1.846779         22.65
     1.844086          0.62
     1.839051          8.47
     1.836263          5.59
     1.835098          1.65
     1.834707          0.02
     1.833570          1.19
     1.832749          1.02
     1.823218          3.43
     1.818053          8.74
     1.816437          0.05
     1.813750          0.82
     1.813374          0.64
     1.811590          0.01
     1.810665          4.79
     1.807065          0.03
     1.806551          0.91
     1.805997          2.23
     1.802085          0.36
     1.799744          0.32
     1.796041          5.48
     1.795889          4.42
     1.794944          0.01
     1.787017          1.64
     1.786553          1.58
     1.782016          0.11
     1.780792          0.23
     1.780533          0.07
     1.778532          3.53
     1.778002          7.26
     1.776906          0.04
     1.776748          0.99
     1.775633          6.67
     1.770850          6.70
     1.770659          5.19
     1.767931          2.22
     1.767133          0.55
     1.760215          7.55
     1.757655          0.31
     1.757465         12.55
     1.753520          0.03
     1.748689         14.22
     1.748101          0.88
     1.747830          5.35
     1.747097          0.29
     1.746921          7.83
     1.744861          1.27
     1.743289          0.05
     1.742954          1.17
     1.742188          0.21
     1.738652          1.10
     1.737773          0.27
     1.737698          1.11
     1.737350          1.60
     1.735872          4.79
     1.735696          0.73
     1.733884          1.19
     1.733666          8.74
     1.731329          0.04
     1.729072          5.79
     1.724028          2.79
     1.722980          4.40
     1.722177          0.21
     1.721210          8.09
     1.718609          0.01
     1.718246          5.71
     1.716699          0.05
     1.716646          0.10
     1.716041          0.05
     1.712394          3.61
     1.707945          0.38
     1.706184          0.63
     1.704094          0.13
     1.702593          0.00
     1.702574          1.54
     1.700257          0.29
     1.699845          4.66
     1.698261          2.62
     1.693764          0.12
     1.693171          6.84
     1.693033          0.76
     1.691359          1.38
     1.687761          0.89
     1.686245          2.10
     1.682688          1.15
     1.679777          1.46
     1.678513          0.06
     1.678077          7.72
     1.677000          1.06
     1.676901          6.28
     1.676392          5.43
     1.671181          0.97
     1.668810          0.11
     1.668640          0.57
     1.665448          0.00
     1.664814          0.05
     1.662471         15.77
     1.662244          4.40
     1.661459          4.78
     1.657556          0.19
     1.654848          0.05
     1.654027          1.07
     1.652748          0.14
     1.652463          0.65
     1.650266          1.70
     1.648597          2.17
     1.647685          0.27
     1.646274          0.06
     1.646220          1.71
     1.645620          6.97
     1.644776          0.18
     1.642344          0.00
     1.639378          0.00
     1.637193          1.72
     1.636123          0.18
     1.631364          0.51
     1.630038          2.84
     1.629245          0.10
     1.627095          0.82
     1.623343          0.00
     1.621748          0.02
     1.621614          0.06
     1.618894          0.31
     1.617754          0.86
     1.616507          3.11
     1.615854          9.14
     1.615795          0.34
     1.614414          0.40
     1.612727          1.12
     1.609855          0.02
     1.609737          2.27
     1.608509          0.36
     1.605983          3.90
     1.604787          0.00
     1.601845          0.28
     1.601843          1.78
     1.601085          0.01
     1.600121          1.99
     1.599051          8.00
     1.598829          1.39
     1.598668          0.22
     1.596793          1.32
     1.595157          0.00
     1.592419          0.15
     1.590802          1.74
     1.590387          1.44
     1.590129          0.02
     1.588673          0.43
     1.585971          3.88
     1.585458          0.35
     1.583944          0.52
     1.581923          0.11
     1.579727          0.17
     1.579151          0.17
     1.577128          2.54
     1.576334          8.54
     1.574393          0.21
     1.571001          0.01
     1.569286          1.01
     1.568820          0.96
     1.568089          0.01
     1.565433          1.25
     1.565325          0.52
     1.565191          4.56
     1.563974          0.77
     1.563962          1.16
     1.561380          1.16
     1.558612          1.55
     1.558156          0.23
     1.558037          0.78
     1.554786          0.63
     1.553801          0.07
     1.553787          2.48
     1.553506          1.38
     1.552118          1.80
     1.550593          0.75
     1.549176          0.74
     1.547224          7.54
     1.546055          0.11
     1.543535          0.87
     1.543420          0.02
     1.542172          0.09
     1.541712          0.04
     1.539803          0.20
     1.539456          0.63
     1.538227          0.04
     1.536941          0.27
     1.536567          2.56
     1.535586          1.42
     1.534365          0.72
     1.533752          0.55
     1.533445          0.08
     1.532584          0.08
     1.531313          4.99
     1.529876          0.01
     1.529375          2.80
     1.528840          0.34
     1.528738          5.86
     1.527694          0.04
     1.526979          0.02
     1.526344          4.23
     1.525734          0.71
     1.523667          1.28
     1.520561          0.03
     1.520262          0.50
     1.517748          0.11
     1.515675          2.99
     1.513996          1.13
     1.513710          0.00
     1.511890          0.19
     1.511419          4.25
     1.507916          0.28
     1.504856          0.20
     1.504226          0.09
     1.504020          0.46
     1.503771          1.89
     1.503652          0.80
     1.502539          0.52
     1.502468          0.07
     1.502289          1.83
     1.501179          0.63
     1.499312          0.16
     1.499307          0.28
     1.499025          0.49
     1.498909          0.03
     1.497604          3.09
     1.495786          0.35
     1.495129          4.64
     1.493562          0.13
     1.492931          0.14
     1.491144          0.06
     1.490996          0.82
     1.489950          0.06
     1.488665          0.71
     1.488405          1.44
     1.488302          0.04
     1.487185          0.15
##############################################################################
###                            Comments                                    ###
##############################################################################
###   Diffraction pattern calculated by Match!. 
###   I/Ic calculated by Match!. 
###   Space group has been derived from given symmetry operations. 
##############################################################################


