##############################################################################
###               Crystal structure data exported by Match!                ###
##############################################################################

data_9010770
_citation_journal_full    'European Journal of Mineralogy'
_citation_journal_volume  '18'
_citation_page_first  '787'
_citation_page_last   '792'
_citation_year  '2006'
_citation_title  'The malachite-rosasite group: crystal structures of glaukosphaerite andpokrovskite'
loop_
_publ_author_name
  'Perchiazzi N.'
  'Merlino S.'
_chemical_formula_sum  'C H2 Cu1.5 Ni0.5 O5'
_chemical_name_mineral  'Glaukosphaerite'
_symmetry_space_group_name_H-M 'P 1 21/a 1'
_space_group_IT_number 14
_space_group_crystal_system 'monoclinic'
loop_
_symmetry_equiv_pos_as_xyz
   'x, y, z'
   '-x+0.5, y+0.5, -z'
   '-x, -y, -z'
   'x+0.5, -y+0.5, z'
_cell_length_a       12.06130
_cell_length_b        9.36530
_cell_length_c        3.13610
_cell_angle_alpha    90.0000
_cell_angle_beta     98.0850
_cell_angle_gamma    90.0000
loop_
_atom_site_label
_atom_site_fract_x
_atom_site_fract_y
_atom_site_fract_z
_atom_site_occupancy
_atom_site_B_iso_or_equiv
cu      0.213   0.998   0.991    1.00000    0.550
ni      0.390   0.767   0.611    0.50000    0.550
cu      0.390   0.767   0.611    0.50000    0.550
c      0.136   -0.272   0.594    1.00000    1.699
o      0.128   -0.136   0.512    1.00000    0.799
o      0.232   -0.335   0.619    1.00000    0.799
o      0.047   -0.344   0.652    1.00000    0.799
o      0.350   0.902   0.038    1.00000    0.799
o      0.422   0.624   0.113    1.00000    0.799
_cell_measurement_wavelength    1.541874
_cell_measurement_radiation   'x-rays'
_exptl_crystal_density_diffrn    4.142000
loop_
_pd_peak_d_spacing
_pd_peak_intensity
     7.369273         53.77
     5.970709        488.12
     5.034584        610.63
     4.682650         48.81
     4.359454          6.95
     3.684637        640.76
     3.663321        165.89
     3.104929          0.10
     3.032808          9.12
     3.020266         95.35
     2.985354         81.23
     2.954550         27.13
     2.947180        261.47
     2.928458         96.80
     2.844339         48.95
     2.795001          5.31
     2.776400         21.58
     2.766453         91.61
     2.608628        136.14
     2.592728         27.24
     2.587744       1000.00
     2.536038         48.96
     2.517292        437.13
     2.512964          0.64
     2.482898        362.38
     2.469830         40.78
     2.456424         96.19
     2.341325         97.51
     2.321277        130.23
     2.314219         88.32
     2.297579          3.74
     2.296037         40.67
     2.278871         15.83
     2.253099          5.21
     2.230479         11.18
     2.204512          4.22
     2.201445         81.54
     2.179727         90.35
     2.157578         15.54
     2.135804        163.76
     2.127543        105.76
     2.127469          0.22
     2.079763         13.18
     2.061932         16.61
     2.018097         18.49
     2.015057         61.08
     2.013349         17.18
     2.001745         79.75
     1.990236         38.24
     1.990011         88.43
     1.969973         41.29
     1.946763         73.34
     1.896844         77.62
     1.871281         26.92
     1.869404          6.98
     1.867544          6.71
     1.862748         11.44
     1.850953          0.02
     1.850435          8.74
     1.849904         81.47
     1.842318          0.29
     1.831660         14.55
     1.828707          8.79
     1.823467          2.05
     1.794120          6.76
     1.787182         59.65
     1.762077         48.10
     1.750068          2.28
     1.745064         43.40
     1.742431        200.12
     1.705663         34.54
     1.694797         12.77
     1.692995         57.33
     1.678301         64.72
     1.678195         20.80
     1.675359          0.03
     1.671922          4.58
     1.660716          0.03
     1.648433        171.59
     1.639512         11.62
     1.605014         12.44
     1.603829          6.57
     1.602864          2.59
     1.586626          5.07
     1.577907         47.53
     1.577778         24.22
     1.574537         29.31
     1.570091         69.08
     1.560883          3.88
     1.556775         77.15
     1.555853          0.84
     1.555527         46.70
     1.552464         48.64
     1.547718          4.01
     1.546436          0.36
     1.543785         70.15
     1.536578         12.60
     1.535703          3.54
     1.531564         95.41
     1.527297         34.19
     1.526553         64.86
     1.521476         23.39
     1.516404          7.53
     1.510133         38.16
     1.507808         15.48
     1.500902          8.06
     1.496984         42.53
     1.495186         38.51
     1.493203          6.72
     1.492677          6.41
     1.486822          9.13
     1.477275          1.65
     1.474071         16.59
     1.473855         78.56
     1.473590         23.50
     1.464229          1.24
     1.457688          4.69
     1.453542          0.00
     1.453151          7.99
     1.451509         28.17
     1.446655         18.63
     1.446219          0.10
     1.439328          0.16
     1.436345          0.17
     1.425878         32.92
     1.424088          1.30
     1.422170         33.17
     1.418675         24.14
     1.415062          0.81
     1.409634          0.07
     1.408146          4.07
     1.401153          0.32
     1.397735         61.85
     1.397501         39.63
     1.395359          1.75
     1.394581         36.96
     1.393155          0.61
     1.390063         13.97
     1.388200         66.10
     1.383227         71.28
     1.379122          4.93
     1.378758          5.52
     1.378624         16.19
     1.377438         38.51
     1.375194          0.29
     1.371909         26.69
     1.367239         10.56
     1.367017         13.90
     1.364042         17.36
     1.363998          9.04
     1.361193          0.57
     1.353251          0.16
     1.346653         13.20
     1.342878          0.08
     1.339418          0.50
     1.336339          0.97
     1.329581         18.62
     1.325652         11.31
     1.325519          2.58
     1.317705          0.01
     1.317233          6.07
     1.316851          2.15
     1.313706         16.30
     1.308417          5.09
     1.306584          2.18
     1.305526         19.09
     1.304394         10.10
     1.304314          1.63
     1.302801          2.88
     1.296991          0.09
     1.296364         45.89
     1.295643          7.40
     1.295281          0.84
     1.293872         15.72
     1.291846         19.49
     1.290939          5.31
     1.288834          2.67
     1.287704          3.02
     1.276987          5.23
     1.276568          1.08
     1.275273         24.61
     1.275225          0.01
     1.273106         36.55
     1.270493          4.70
     1.268181         29.58
     1.268019         17.09
     1.265279         22.59
     1.263741          5.32
     1.261225         11.90
     1.258646          2.29
     1.256482          1.68
     1.241449          4.34
     1.241218          0.36
     1.238858          3.07
     1.234915          0.06
     1.233979          1.17
     1.231997          0.27
     1.229220          0.21
     1.228688          0.54
     1.228212          0.06
     1.227453         20.62
     1.221107         19.12
     1.220902          1.05
     1.217816         16.16
     1.216915          1.30
     1.215368          1.92
     1.214916         23.42
     1.213618          3.37
     1.213319          2.20
     1.210119          0.89
     1.206713          0.29
     1.203492         11.98
     1.202303          0.91
     1.197980          0.97
     1.197238          1.37
     1.196997          0.04
     1.195274          2.72
     1.194142          7.21
     1.192888          0.13
     1.190461          0.26
     1.190166          1.17
     1.190059          3.16
     1.185362          1.01
     1.184551          0.10
     1.181924          9.19
     1.180527          0.01
     1.177598          1.69
     1.176770          0.16
     1.172479          0.53
     1.171103          1.27
     1.170663         25.11
     1.167337          2.42
     1.167230          0.00
     1.165077          4.45
     1.162052          3.95
     1.160638          5.89
     1.159150          0.57
     1.157110          0.01
     1.156036          4.37
     1.154351          0.71
     1.153594          6.90
     1.153579         11.20
     1.151827          5.82
     1.151577          3.19
     1.150917          6.73
     1.148790          5.02
     1.148331          0.12
     1.148281          6.14
     1.148018          0.06
     1.140563          3.44
     1.139746          5.78
     1.139436          9.57
     1.136111          7.88
     1.134544          0.53
     1.128312          9.62
     1.128203          1.21
     1.128016          0.47
     1.126550         12.71
     1.123098          5.11
     1.121081          0.71
     1.118453         10.89
     1.118187         26.96
     1.115328          5.71
     1.115239          8.16
     1.114766          0.00
     1.114595          7.22
     1.112086         18.43
     1.110340          0.93
     1.109636          3.82
     1.106205          3.12
     1.102256          0.11
     1.100723          5.77
     1.096487          6.73
     1.095769          4.04
     1.095391          3.17
     1.094516          0.37
     1.089863          1.05
     1.089372          7.97
     1.089174          2.00
     1.087884          2.70
     1.087025          5.20
     1.086221          3.90
     1.085921          0.15
     1.085599          1.60
     1.082701          0.47
     1.079715         11.38
     1.078789          7.94
     1.078363          1.07
     1.077688          0.95
     1.077471          2.66
     1.072522          1.28
     1.070366          9.52
     1.069797          0.01
     1.068651         21.55
     1.068344          9.33
     1.068045         14.13
     1.067902         13.75
     1.065870          2.74
     1.065479          0.02
     1.063772         25.82
     1.063735         29.71
     1.060882         15.75
     1.058812          2.02
     1.058649          0.07
     1.057536          1.40
     1.055107          9.24
     1.052753          3.68
     1.052747          2.43
     1.051173          0.00
     1.048082          0.10
     1.047763          2.45
     1.047387          1.36
     1.045745          0.37
     1.045261         14.79
     1.044797          1.08
     1.042975          2.78
     1.041181          0.84
     1.039881          0.91
     1.039854          2.47
     1.038924         18.14
     1.038355          1.95
     1.037393          0.45
     1.036660          0.57
     1.034976         11.93
     1.034732          0.52
     1.032872         18.53
     1.031536          2.69
     1.030966          4.85
     1.028714          7.87
     1.026518          8.95
     1.025369         11.47
     1.025355          5.55
     1.025136          0.39
     1.024408         25.08
     1.023439          2.67
     1.020423          0.27
     1.019723         27.73
     1.018812          0.61
     1.018259          0.87
     1.017752          0.16
     1.017382          4.19
     1.016731         14.28
     1.014927          0.38
     1.014675          1.59
     1.014597          1.44
     1.013478          4.49
     1.013261          0.02
     1.012881          0.02
     1.012293          1.64
     1.012239         10.08
     1.010936          1.78
     1.010586          1.68
     1.009048          2.57
     1.008364          0.12
     1.007528          2.35
     1.006917          5.20
     1.006755          0.02
     1.006675          4.15
##############################################################################
###                            Comments                                    ###
##############################################################################
###   Diffraction pattern calculated by Match!. 
###   I/Ic calculated by Match!. 
##############################################################################


