##############################################################################
###               Crystal structure data exported by Match!                ###
##############################################################################
###                           Data published by:                           ###
###                                                                        ###
###               COD (Crystallography Open Database)
##############################################################################
data_9007490
_citation_journal_full    'Acta Crystallographica'
_citation_journal_volume  '22'
_citation_page_first  '146'
_citation_page_last   '151'
_citation_year  '1967'
_citation_title  'Verfeinerung der kristallstruktur des malachits, Cu2(OH)2CO3'
loop_
_publ_author_name
  'Susse P.'
_chemical_formula_sum  'C H2 Cu2 O5'
_chemical_name_mineral  'Malachite'
_symmetry_space_group_name_H-M 'P 1 21/a 1'
_space_group_IT_number 14
_space_group_crystal_system 'monoclinic'
loop_
_symmetry_equiv_pos_as_xyz
   'x, y, z'
   '-x+0.5, y+0.5, -z'
   '-x, -y, -z'
   'x+0.5, -y+0.5, z'
_cell_length_a        9.50200
_cell_length_b       11.97400
_cell_length_c        3.24000
_cell_angle_alpha    90.0000
_cell_angle_beta     98.7500
_cell_angle_gamma    90.0000
loop_
_atom_site_label
_atom_site_fract_x
_atom_site_fract_y
_atom_site_fract_z
_atom_site_occupancy
_atom_site_B_iso_or_equiv
cu      0.498   0.288   0.893    1.00000    1.080
cu      0.232   0.393   0.388    1.00000    1.042
o      0.094   0.352   0.916    1.00000    0.379
o      0.377   0.416   0.865    1.00000    0.460
h      0.020   0.380   0.710    1.00000    3.999
h      0.410   0.500   0.860    1.00000    3.999
c      0.267   0.140   0.471    1.00000    0.520
o      0.131   0.136   0.338    1.00000    0.550
o      0.333   0.235   0.445    1.00000    0.529
o      0.334   0.056   0.629    1.00000    0.640
_cell_measurement_wavelength    1.541874
_cell_measurement_radiation   'x-rays'
_exptl_crystal_density_diffrn    4.030000
loop_
_pd_peak_d_spacing
_pd_peak_intensity
     7.389652         74.50
     5.987000        505.25
     5.048407        691.14
     4.695705         51.23
     4.371574          2.05
     3.694826        705.15
     3.673350        172.88
     3.202291         19.40
     3.093572         17.20
     3.075647          0.60
     3.041159         13.36
     3.028675         98.98
     2.993500        108.93
     2.855563       1000.00
     2.852116         73.49
     2.823743        143.78
     2.817787        131.77
     2.810092         25.56
     2.777669        441.93
     2.774131         74.31
     2.609359          0.06
     2.577404         21.70
     2.524204        421.30
     2.497751        105.71
     2.488288         24.78
     2.476113        217.23
     2.463217         87.63
     2.424810        182.03
     2.382413         52.15
     2.347853        116.54
     2.345693         13.42
     2.322398         15.93
     2.320542        117.19
     2.303980          2.33
     2.288141        139.69
     2.252414         81.46
     2.186814        118.59
     2.185787         74.87
     2.180455          0.34
     2.163526         26.46
     2.133375        115.99
     2.104104         18.12
     2.082586         58.13
     2.076222        108.77
     2.066232         43.44
     2.054626        102.30
     2.047827         11.39
     2.023692         10.71
     2.018520          6.42
     1.995667         46.14
     1.969484        131.03
     1.952079         68.32
     1.937615        121.29
     1.917827         33.62
     1.913533        115.58
     1.907980          0.07
     1.902061         65.59
     1.887117         64.64
     1.855591         15.84
     1.848430          0.19
     1.847413          0.07
     1.846361          0.85
     1.836675         28.30
     1.834935          1.04
     1.822009         45.32
     1.792156         69.12
     1.769450          4.70
     1.750440          2.79
     1.721685          2.69
     1.721408          1.80
     1.711208          3.71
     1.706040          3.25
     1.699504         13.77
     1.696890         27.42
     1.693691         14.62
     1.690732          1.11
     1.690180        171.35
     1.682884         56.71
     1.682802         22.10
     1.676535          3.09
     1.670655        109.21
     1.643861         75.96
     1.635782         34.47
     1.617616        119.08
     1.607249          0.42
     1.605102         38.86
     1.601146          9.09
     1.594841         14.89
     1.591211          5.14
     1.591023          3.66
     1.587020        181.58
     1.577345          1.72
     1.572757        116.67
     1.565235          2.64
     1.563513          5.61
     1.556385          3.47
     1.553820          3.91
     1.552031          0.81
     1.546786          5.75
     1.542490         70.31
     1.537824          2.96
     1.527453         42.92
     1.523241         33.75
     1.520580          9.42
     1.514338         39.61
     1.510333          3.41
     1.510089         44.60
     1.508803         24.98
     1.506709         34.56
     1.504178          0.55
     1.501089         52.82
     1.500847          1.67
     1.499086         19.25
     1.496750          4.47
     1.491481         13.29
     1.487474         12.05
     1.486034          1.91
     1.478096         27.76
     1.478081         53.09
     1.477930         81.95
     1.475530          3.74
     1.475303          0.19
     1.473254         57.92
     1.467430          4.97
     1.457191         13.44
     1.454193          6.52
     1.449603          1.25
     1.441881          0.57
     1.439096          5.46
     1.436792          2.06
     1.429234          3.35
     1.427782         10.76
     1.426058         25.69
     1.424557         11.48
     1.423125         10.36
     1.422516          0.10
     1.422312         48.42
     1.417738         48.23
     1.411871          0.04
     1.408893          0.00
     1.407543         29.04
     1.407392         21.34
     1.405046         15.41
     1.403368          0.08
     1.398955          2.75
     1.388834          1.65
     1.387065         71.48
     1.382548          4.57
     1.369437          4.36
     1.367762          4.50
     1.362524         60.42
     1.357059         13.88
     1.356882         27.89
     1.355948         18.09
     1.354428         55.64
     1.350342         13.52
     1.344356          1.27
     1.341663         15.39
     1.340404          2.40
     1.336565         11.15
     1.333287         21.52
     1.331049          0.93
     1.329971          1.43
     1.328752          6.73
     1.325682          1.62
     1.325326          5.01
     1.323977          0.23
     1.322601          4.22
     1.320645         20.14
     1.317292         14.80
     1.313828          5.91
     1.312820          2.18
     1.312265          5.69
     1.311402          0.58
     1.310203          1.36
     1.309162         15.38
     1.304680          0.79
     1.302729          0.17
     1.297188          3.55
     1.295316         31.78
     1.290726          0.23
     1.288702          5.22
     1.284826         18.20
     1.284676          1.32
     1.280916          2.40
     1.280197          4.70
     1.280057          2.50
     1.274553          6.26
     1.274546          3.13
     1.271709         28.79
     1.270665          2.14
     1.264700          8.21
     1.262102          0.72
     1.260725          1.73
     1.257630         25.63
     1.254790         10.12
     1.248875          0.26
     1.245110          2.01
     1.244144          0.37
     1.240108          7.17
     1.238056          0.01
     1.231609          0.11
     1.231491         14.48
     1.229845          9.99
     1.228625          3.23
     1.227494          1.80
     1.226830         20.59
     1.226363          1.86
     1.224450         15.94
     1.224293          4.83
     1.219746          5.38
     1.219218         11.36
     1.216004          7.29
     1.215509          1.34
     1.214483          0.14
     1.212405          2.48
     1.210459          8.23
     1.210333          3.28
     1.209294          2.08
     1.209201         21.98
     1.209175         18.01
     1.208389          7.26
     1.205974          0.03
     1.200506         12.51
     1.198595          3.21
     1.197400          6.74
     1.191206          5.96
     1.187785          0.03
     1.182476          0.02
     1.176122          4.23
     1.173926         21.89
     1.172847          1.53
     1.172683          5.64
     1.171980          6.69
     1.170549          4.73
     1.170467          0.00
     1.169713          0.49
     1.168953         18.02
     1.168325          8.19
     1.167095         11.60
     1.165070         19.75
     1.162784         33.64
     1.161886          0.75
     1.161199          1.96
     1.160737          0.17
     1.160271          0.01
     1.157517          1.80
     1.157236          1.71
     1.155322          3.60
     1.154757          5.26
     1.153321          0.05
     1.151990          4.75
     1.149630         11.85
     1.144525          0.02
     1.144070          0.18
     1.142750          3.81
     1.139519          7.23
     1.137270          0.57
     1.137166          1.97
     1.134635         18.73
     1.131076          2.09
     1.127468          0.04
     1.127414          0.01
     1.126224          3.56
     1.126207         10.72
     1.121647          0.36
     1.121558          0.30
     1.120698          2.28
     1.118379          2.32
     1.116234          0.07
     1.115663          0.01
     1.115322          3.84
     1.114563          1.83
     1.113415          1.14
     1.110444          1.30
     1.106724          0.26
     1.106021          0.34
     1.105907         11.23
     1.104249         11.24
     1.102007         15.79
     1.099782          1.26
     1.099268          7.94
     1.096391         26.79
     1.096125          3.33
     1.095433          8.81
     1.094030          1.49
     1.093407          0.40
     1.092893          2.01
     1.092746          1.92
     1.090228          2.27
     1.085677          0.41
     1.083886          3.15
     1.082228         17.34
     1.081763          7.93
     1.081306          0.63
     1.077973          5.84
     1.076888          2.41
     1.074827          5.37
     1.074169          0.30
     1.074108          0.21
     1.073338          8.28
     1.072559         32.22
     1.067430          0.01
     1.067347         20.74
     1.067261          0.01
     1.066687         25.69
     1.063386          0.18
     1.063214          1.07
     1.062222          8.73
     1.062067          0.06
     1.060425          0.92
     1.059879          2.06
     1.059187          0.59
     1.057290          0.22
     1.056838          0.59
     1.056669          6.98
     1.055665          3.13
     1.055111         17.59
     1.054092          0.13
     1.052052          0.81
     1.051709          1.54
     1.050859          3.00
     1.049356          3.51
     1.047675          0.02
     1.045926          0.11
     1.045078          1.14
     1.044538          7.26
     1.044513          6.52
     1.042779          0.90
     1.041775          0.38
     1.041293          0.09
     1.040301          9.65
     1.039709          0.28
     1.039550          0.27
     1.039014          0.94
     1.038847          1.08
     1.038420          3.21
     1.038111          1.91
     1.035936          1.87
     1.035848          3.58
     1.033666          0.21
     1.033116          0.02
     1.032708          1.00
     1.031191          8.44
     1.030628          0.40
     1.029960          2.59
     1.028889          0.00
     1.028160          3.61
     1.028082          4.89
     1.027993          0.56
     1.027475          3.56
     1.027313          0.00
     1.026492          5.45
     1.025216          0.01
     1.024498          9.58
     1.023913          4.49
     1.023283          1.88
     1.020675          1.76
     1.020190         12.05
     1.019082          0.08
     1.017679          0.29
     1.017148          3.59
     1.016996         12.19
     1.015225          2.53
     1.013720          3.00
     1.013313          0.01
     1.012748          8.31
     1.011846          1.64
     1.010997          5.17
     1.009681          2.94
     1.009558          0.08
     1.009260          0.64
     1.009068          0.01
     1.008914         24.49
     1.008251          3.20
     1.006777          1.87
##############################################################################
###                            Comments                                    ###
##############################################################################
###   Diffraction pattern calculated by Match!. 
###   I/Ic calculated by Match!. 
##############################################################################


