##############################################################################
###               Crystal structure data exported by Match!                ###
##############################################################################
###                           Data published by:                           ###
###                                                                        ###
###               COD (Crystallography Open Database)
##############################################################################
data_2102525
_citation_journal_full    'Acta Crystallographica Section B'
_citation_journal_volume  '60(3)'
_citation_page_first  '287'
_citation_page_last   '292'
_citation_year  '2004'
_citation_title  '30 Space-group corrections: two examples of false polymorphism and oneof incorrect interpretation of the fine details of an IR spectrum'
loop_
_publ_author_name
  'Prof. Clemente Dore Augusto'
  'Prof. Marzotto Armando'
_chemical_formula_sum  'C20 H15 Fe N O2'
_chemical_name_common  '4-Ferrocenylmethylene-2-phenyl-4H-oxazol-5-one'
_symmetry_space_group_name_H-M 'P 1 21/n 1'
_space_group_IT_number 14
_space_group_crystal_system 'monoclinic'
loop_
_symmetry_equiv_pos_as_xyz
   'x, y, z'
   '-x+0.5, y+0.5, -z+0.5'
   '-x, -y, -z'
   'x+0.5, -y+0.5, z+0.5'
_cell_length_a       10.39100
_cell_length_b        7.25200
_cell_length_c       20.66200
_cell_angle_alpha    90.0000
_cell_angle_beta     97.4700
_cell_angle_gamma    90.0000
_cell_formula_units_Z 4
loop_
_atom_site_label
_atom_site_fract_x
_atom_site_fract_y
_atom_site_fract_z
_atom_site_occupancy
_atom_site_B_iso_or_equiv
fe      0.494   0.283   0.227    1.00000    1.579
o      0.347   0.290   -0.059    1.00000    1.579
o      0.139   0.249   -0.042    1.00000    1.579
n      0.149   0.317   0.066    1.00000    1.579
c      0.394   0.438   0.154    1.00000    1.579
c      0.311   0.384   0.200    1.00000    1.579
c      0.364   0.454   0.262    1.00000    1.579
c      0.479   0.549   0.255    1.00000    1.579
c      0.500   0.539   0.189    1.00000    1.579
c      0.488   0.003   0.231    1.00000    1.579
c      0.526   0.077   0.294    1.00000    1.579
c      0.641   0.179   0.292    1.00000    1.579
c      0.673   0.169   0.228    1.00000    1.579
c      0.579   0.059   0.191    1.00000    1.579
c      0.382   0.395   0.086    1.00000    1.579
c      0.273   0.338   0.048    1.00000    1.579
c      0.268   0.294   -0.022    1.00000    1.579
c      0.076   0.269   0.014    1.00000    1.579
c      -0.063   0.235   0.005    1.00000    1.579
c      -0.133   0.269   0.057    1.00000    1.579
c      -0.264   0.240   0.050    1.00000    1.579
c      -0.328   0.175   -0.008    1.00000    1.579
c      -0.259   0.140   -0.059    1.00000    1.579
c      -0.127   0.171   -0.053    1.00000    1.579
_cell_measurement_wavelength    1.541874
_cell_measurement_radiation   'x-rays'
_exptl_crystal_density_diffrn    1.472000
loop_
_pd_peak_d_spacing
_pd_peak_intensity
    10.243322         41.51
     9.725911         53.50
     8.758683          0.74
     6.836320         73.08
     6.066858        398.32
     5.930225         58.52
     5.918814         59.96
     5.813752        951.64
     5.585824        273.02
     5.379126        194.24
     5.307293         36.54
     5.151406         65.20
     5.121661       1000.00
     4.973363          2.27
     4.971604         48.50
     4.862955        646.49
     4.653257        320.46
     4.379342        322.06
     4.320362        233.00
     4.202697        107.94
     4.199689          0.00
     4.183525         54.31
     4.038937         19.74
     4.030943        131.58
     4.028135          6.92
     3.989565         30.30
     3.893958         82.68
     3.759553          3.90
     3.748821          0.12
     3.740178          7.58
     3.647929          7.57
     3.626000        200.95
     3.570505          8.98
     3.567325          0.79
     3.495524         43.10
     3.461175          0.61
     3.430680         38.40
     3.420353        298.20
     3.419272         29.37
     3.418160        200.66
     3.416721         14.12
     3.414441         51.15
     3.397560          2.40
     3.350253        100.48
     3.317418          0.14
     3.287171         16.01
     3.258856         18.73
     3.241970          9.89
     3.203006          2.35
     3.202536         37.44
     3.123646         36.96
     3.112459          5.14
     3.103827          0.16
     3.101691          0.18
     3.090853          0.18
     3.089165         15.32
     3.072330          6.69
     3.059678          1.55
     3.033429          2.21
     3.016758          6.32
     3.006677         24.67
     2.966170          2.06
     2.965112          6.64
     2.959686         10.49
     2.959407        109.38
     2.919561          9.40
     2.916717          7.23
     2.906876         12.36
     2.903892          8.16
     2.902841          0.10
     2.878086          1.88
     2.867677          4.92
     2.818579          3.55
     2.804507          1.08
     2.798474          5.09
     2.797341         12.12
     2.792912         26.02
     2.789332         50.08
     2.788746          2.67
     2.723741         33.94
     2.715388         17.84
     2.713988          2.47
     2.708322          2.32
     2.706051         26.33
     2.689563          3.56
     2.683316         22.44
     2.653647         12.79
     2.648356          1.15
     2.627130         12.44
     2.578480         47.98
     2.575703          2.03
     2.571687          8.79
     2.560830          9.25
     2.549827          3.34
     2.530221          0.27
     2.526133          1.37
     2.521722         31.78
     2.503663          1.54
     2.493423          2.37
     2.492314          0.25
     2.486681          0.23
     2.485802          7.71
     2.478167          4.63
     2.477005          1.46
     2.470360          0.54
     2.447604          0.28
     2.445561          1.58
     2.444097          1.83
     2.431478         11.60
     2.429483          1.96
     2.427159          1.47
     2.424510         29.10
     2.422067         13.18
     2.417765          1.67
     2.416827          3.18
     2.414702         40.12
     2.400679          4.28
     2.385914          7.18
     2.380894          2.10
     2.376526          0.01
     2.371779          5.27
     2.365944          3.88
     2.353423          4.14
     2.352708          0.08
     2.345958          8.47
     2.345028         18.64
     2.330213          1.94
     2.330092          0.02
     2.326629          7.01
     2.321029          0.20
     2.308675          1.80
     2.305350          0.04
     2.299409          2.45
     2.297324         17.63
     2.289982          0.50
     2.289467          0.37
     2.286184         12.21
     2.278942          4.49
     2.278773          1.86
     2.277395          0.01
     2.274043          5.13
     2.272699          7.17
     2.266405         18.32
     2.245637          9.31
     2.225340          1.73
     2.210379          9.91
     2.204920         33.54
     2.203403          0.00
     2.198239          1.43
     2.189671         15.17
     2.188795          0.99
     2.188369          1.98
     2.186073          3.87
     2.182790         12.58
     2.180403          0.15
     2.177769         23.99
     2.173139          0.39
     2.171819          0.83
     2.165516          4.45
     2.164641          1.25
     2.164210          4.69
     2.163408          0.05
     2.162973          6.32
     2.162952          1.80
     2.160181          0.00
     2.118254          0.05
     2.116329          2.27
     2.114770          0.63
     2.111726          1.00
     2.110784          5.44
     2.103715         21.38
     2.101349         19.40
     2.100148          0.02
     2.099845          0.19
     2.097002         26.90
     2.096489          0.84
     2.096202          4.97
     2.093753         22.46
     2.091763          0.52
     2.090163          2.29
     2.081995          2.83
     2.077285          3.78
     2.073832          1.26
     2.069670          8.51
     2.067433          8.22
     2.066799          2.94
     2.053770          7.78
     2.051315          4.96
     2.048664          4.53
     2.047711          0.59
     2.045980          1.15
     2.024182         10.58
     2.022286          0.08
     2.019469          1.76
     2.015471          9.48
     2.015062          2.89
     2.014473          0.23
     2.014067         12.58
     2.009114          4.65
     2.008766          0.01
     1.996975          3.86
     1.994782          0.81
     1.993136         19.67
     1.993050          0.80
     1.992032          1.01
     1.984380          4.25
     1.982705          0.81
     1.982104          0.11
     1.981832         21.12
     1.976742         11.28
     1.976189          1.44
     1.973378          8.11
     1.972938          6.24
     1.971507          7.97
     1.970657         19.38
     1.968531          7.65
     1.965191          2.26
     1.954709          0.28
     1.953677         20.76
     1.949880          0.38
     1.949659         25.57
     1.947965          0.01
     1.946979          8.68
     1.945182          3.63
     1.938650          1.03
     1.937917          6.56
     1.933887         25.93
     1.931599          0.86
     1.928813          2.80
     1.927889          0.31
     1.923347          8.25
     1.917887          0.01
     1.914460         11.73
     1.911388          3.92
     1.905393          0.10
     1.902144          1.73
     1.893145          4.68
     1.892334          6.77
     1.890478          9.08
     1.887470          1.59
     1.880390          0.70
     1.879777          2.47
     1.878771         15.76
     1.877230          2.29
     1.875907          0.29
     1.874616          2.29
     1.874411          1.68
     1.872883         18.28
     1.870365          1.38
     1.870089          7.17
     1.863779         15.28
     1.861941          5.86
     1.861203          5.64
     1.858365          5.09
     1.842846          9.51
     1.834923         12.67
     1.823965          2.73
     1.816130          0.38
     1.815623          0.03
     1.815291          5.79
     1.813000          8.57
     1.810391          1.52
     1.807979          3.31
     1.805942          6.51
     1.803885          0.34
     1.802456          1.00
     1.800950          1.87
     1.799569          0.74
     1.799474          9.49
     1.798819          0.05
     1.798510          6.81
     1.797877          8.68
     1.793179          3.33
     1.793042          6.43
     1.792383          6.23
     1.791942          1.64
     1.791498          1.00
     1.785565          6.79
     1.785253          0.36
     1.783663          3.38
     1.783033          0.19
     1.782298          0.03
     1.775365          3.61
     1.775287          0.35
     1.773608          0.02
     1.772221          1.42
     1.769653          0.15
     1.769098          1.64
     1.768874         20.98
     1.767435         18.49
     1.766172          3.16
     1.765784          3.99
     1.765040          0.00
     1.763532          1.12
     1.762643          2.25
     1.759035          1.90
     1.757854          7.75
     1.753947          0.65
     1.752373          5.55
     1.752296          2.23
     1.751737         16.99
     1.747762          0.03
     1.745628          0.14
     1.744681          1.14
     1.743661          1.20
     1.742961          0.56
     1.740627          0.22
     1.740024          0.84
     1.737094          0.13
     1.734391          5.06
     1.731806          0.00
     1.730588         12.47
     1.730420          2.50
     1.725006          3.92
     1.718041         23.21
     1.717135          9.91
     1.715688          0.03
     1.715340          9.79
     1.714292          0.02
     1.714111          1.37
     1.711845         13.62
     1.710984          7.35
     1.710380         11.09
     1.710177         11.62
     1.709636          0.03
     1.709080         11.38
     1.708360          0.88
     1.707944          3.17
     1.707730          0.66
     1.707720          1.45
     1.707220          1.29
     1.702765          1.53
     1.698780          5.40
     1.698184         16.63
     1.698095          6.57
     1.697974          1.19
     1.695875          8.12
     1.687375          0.01
     1.686820          3.70
     1.686697          0.05
     1.683321          0.13
     1.682741          0.15
     1.676081          6.03
     1.675126          6.79
     1.674353         16.27
     1.674235          0.45
     1.674143          1.04
     1.672639          0.15
     1.671903          1.20
     1.671106          0.61
     1.670933          0.18
     1.669600         12.12
     1.666141         10.79
     1.665749          8.13
     1.662845          7.06
     1.661793          9.21
     1.661706          4.09
     1.661006          1.47
     1.658709         10.42
     1.657945          4.55
     1.657788          2.66
     1.657201          2.09
     1.656671          2.34
     1.651324          0.81
     1.650563          9.29
     1.648591          0.07
     1.643586          3.73
     1.643473          1.79
     1.642326         16.20
     1.639347          0.00
     1.637191          1.98
     1.634436          0.13
     1.633126          0.25
     1.632043          0.18
     1.629428          2.86
     1.628081          0.21
     1.626429          0.13
     1.626343          7.02
     1.624693          4.41
     1.624305          0.43
     1.623544          0.87
     1.622997          7.76
     1.622864          3.67
     1.620985          9.28
     1.620566          0.42
     1.620057          2.33
     1.616953          0.27
     1.612417          1.73
     1.611203          4.66
     1.608894          1.42
     1.607268          0.72
     1.606793          6.18
     1.606012          0.13
     1.603299          0.69
     1.603005          3.72
     1.601503          7.43
     1.601268          0.42
     1.598909          2.63
     1.597118          0.56
     1.597000          6.24
     1.590919          2.20
     1.590338          4.12
     1.588959          2.01
     1.584039          0.58
     1.582374          0.55
     1.581948          2.47
     1.577630          1.71
     1.577316          8.89
     1.576115          0.00
     1.575489          4.47
     1.573596          0.04
     1.573560          2.87
     1.573059          0.04
     1.569526          2.26
     1.569282          2.72
     1.568454          0.29
     1.568156          1.80
     1.567832          2.21
     1.567797          3.04
     1.567311          0.37
     1.564617         13.58
     1.562893          4.66
     1.562469          4.36
     1.561823          3.25
     1.561360          0.57
     1.561074          1.44
     1.557265          0.26
     1.556230          1.59
     1.554665          7.64
     1.554557          1.14
     1.554551          2.54
     1.553424          4.52
     1.553280          0.37
     1.552691          0.77
     1.552139          3.66
     1.551941          9.73
     1.551914          3.18
     1.551086          0.01
     1.550845          0.12
     1.545427          1.85
     1.544582          2.77
     1.542785          1.28
     1.541235          0.00
     1.540195          2.44
     1.539956          0.16
     1.539777          0.04
     1.538571          7.13
     1.537236          2.32
     1.536165          0.71
     1.535772          2.51
     1.533964          0.04
     1.532396          6.42
     1.529839          0.04
     1.529734          0.08
     1.528363          3.58
     1.527652          1.50
     1.526509          0.16
     1.526116          3.71
     1.524797          1.44
     1.522979          0.01
     1.522854          0.15
     1.520558          1.33
     1.520127          0.03
     1.517400          0.81
     1.516715          0.91
     1.516315          2.29
     1.515465          1.82
     1.514342          0.25
     1.512370          5.33
     1.511311          0.84
     1.511043          1.35
     1.510525          0.23
     1.509230         12.15
     1.508569          0.00
     1.508379          2.56
     1.505134          0.68
     1.504272          0.01
     1.503339          0.41
     1.501831          0.02
     1.496421          0.59
     1.495512          0.26
     1.492143          2.76
     1.488197          4.99
     1.486720          4.03
     1.486391          1.59
     1.484593          3.96
     1.483085          6.82
     1.483010          0.38
     1.482556          1.61
     1.482010          0.34
     1.481881          0.41
     1.481735          1.93
     1.480765          3.15
     1.480407          4.61
     1.480387          0.03
     1.479843          0.87
     1.479703          1.37
     1.478937          0.01
     1.478887          0.06
     1.478787          6.65
##############################################################################
###                            Comments                                    ###
##############################################################################
###   Diffraction pattern calculated by Match!. 
###   I/Ic calculated by Match!. 
##############################################################################


