##############################################################################
###               Crystal structure data exported by Match!                ###
##############################################################################
###                           Data published by:                           ###
###                                                                        ###
###               COD (Crystallography Open Database)
##############################################################################
data_4123992
_citation_journal_full    'Journal of the American Chemical Society'
_citation_journal_volume  '90'
_citation_page_first  '5422'
_citation_page_last   '5429'
_citation_year  '1968'
_citation_title  'The molecular configuration of (H2 N Fe (C O)3)2 and its Identity withthe previously reported (H N Fe (C O)3)2. The influence of bridgedligands on the basic geometry of an organometallic complex containing astrong metal-metal bond'
loop_
_publ_author_name
  'Bahl L.F.'
  'Costello W.R.'
  'King R.B.'
_chemical_formula_sum  'C6 H4 Fe2 N2 O6'
_chemical_name_common  '((H2 N)2 (Fe (C O)3)2)'
_symmetry_space_group_name_H-M 'P n a 21'
_space_group_IT_number 33
_space_group_crystal_system 'orthorhombic'
loop_
_symmetry_equiv_pos_as_xyz
   'x, y, z'
   '-x, -y, z+0.5'
   '-x+0.5, y+0.5, z+0.5'
   'x+0.5, -y+0.5, z'
_cell_length_a       13.60000
_cell_length_b        6.81000
_cell_length_c       11.77000
_cell_angle_alpha    90.0000
_cell_angle_beta     90.0000
_cell_angle_gamma    90.0000
_cell_formula_units_Z 4
loop_
_atom_site_label
_atom_site_fract_x
_atom_site_fract_y
_atom_site_fract_z
_atom_site_occupancy
_atom_site_B_iso_or_equiv
o      0.148   0.865   -0.101    1.00000    1.000
o      0.291   0.015   0.164    1.00000    1.000
c      0.260   0.386   -0.057    1.00000    1.000
c      0.226   0.115   0.179    1.00000    1.000
c      0.083   0.355   -0.094    1.00000    1.000
fe      0.129   0.293   0.180    1.00000    1.000
c      0.040   0.110   0.149    1.00000    1.000
o      0.037   0.268   -0.160    1.00000    1.000
fe      0.153   0.480   0.008    1.00000    1.000
c      0.157   0.710   -0.056    1.00000    1.000
o      0.326   0.313   -0.095    1.00000    1.000
o      -0.022   0.000   -0.120    1.00000    1.000
c      0.113   0.306   0.320    1.00000    1.000
n      0.041   0.496   0.115    1.00000    1.000
o      0.101   0.305   0.425    1.00000    1.000
n      0.220   0.519   0.153    1.00000    1.000
_cell_measurement_wavelength    1.541874
_cell_measurement_radiation   'x-rays'
_exptl_crystal_density_diffrn    1.875000
loop_
_pd_peak_d_spacing
_pd_peak_intensity
     6.800000         37.95
     6.089257        170.84
     5.894467        415.31
     5.887979       1000.00
     5.885000         33.04
     5.408337        438.83
     4.811858        260.50
     4.454017         10.82
     4.449928         60.29
     4.231692        137.97
     3.773666        172.92
     3.725147        201.67
     3.593486         37.10
     3.405000          0.66
     3.400000         67.00
     3.399525        107.43
     3.398279          1.16
     3.303049         70.34
     3.298051        102.90
     3.266445         11.90
     3.180194          5.89
     3.176669         58.89
     3.044629         10.33
     3.041945         51.29
     3.040713          9.72
     2.947608         88.57
     2.947234         91.14
     2.945173        137.18
     2.943989         14.16
     2.942500        131.81
     2.880375         52.52
     2.722558         28.49
     2.719757          2.56
     2.704169          6.47
     2.702288         61.78
     2.700511         44.80
     2.652520         22.34
     2.649386         26.21
     2.569415         29.20
     2.526797          2.00
     2.525968          1.58
     2.510336         20.40
     2.470948          4.20
     2.469733         35.68
     2.405929         33.87
     2.405319        144.37
     2.403995         13.68
     2.357186         25.81
     2.321184         22.02
     2.320454         25.96
     2.266667         10.93
     2.239025          0.47
     2.236756          1.52
     2.228925          3.54
     2.227008         58.67
     2.226364         22.86
     2.225769         19.30
     2.224964         25.71
     2.224831         19.76
     2.224482         47.38
     2.199580         14.49
     2.197118          8.66
     2.195645         15.08
     2.153194          4.57
     2.150664         11.34
     2.125180         17.36
     2.123847         28.33
     2.118044          2.39
     2.115846          5.25
     2.115636          0.33
     2.115197         13.21
     2.114945         16.84
     2.114530          2.79
     2.092682         26.62
     2.091363          7.74
     2.050994          8.20
     2.029752         12.95
     2.022098         21.69
     2.020002         16.88
     2.000227         13.59
     1.998842          6.62
     1.998376          7.40
     1.997267          3.55
     1.964822         15.78
     1.962660          6.11
     1.961667         22.32
     1.944633         29.58
     1.935400          7.95
     1.918829         43.35
     1.916988          1.91
     1.916626          1.39
     1.887899          1.04
     1.887605          0.25
     1.886833          4.70
     1.885900          0.48
     1.884806          2.44
     1.868646          4.90
     1.868311          1.70
     1.867169         10.84
     1.864072         16.12
     1.863046         34.35
     1.862574         89.72
     1.862291          7.79
     1.861676         16.80
     1.845209          9.17
     1.816516         33.98
     1.802779          5.60
     1.797664          4.53
     1.796743         13.32
     1.795669          2.91
     1.781832         10.84
     1.780727         12.23
     1.780688          3.74
     1.742811         15.94
     1.740544         40.61
     1.737652         10.93
     1.736322         15.00
     1.724014         12.42
     1.722828          5.01
     1.722118         39.38
     1.702500         10.88
     1.701189         13.38
     1.700409         12.47
     1.700000          4.63
     1.699763          2.67
     1.699140          7.89
     1.689315          5.22
     1.687482          1.49
     1.686814          2.15
     1.686641          1.59
     1.682589         10.39
     1.682541         16.68
     1.672179          7.24
     1.671073          4.39
     1.670801          3.77
     1.670402          7.23
     1.651525          0.03
     1.649385          0.34
     1.649026         12.65
     1.648599          2.44
     1.635503         11.10
     1.635439          3.24
     1.634022          0.23
     1.633424         17.09
     1.633222          2.17
     1.632777          6.77
     1.632407         10.27
     1.632269         17.30
     1.623741         10.15
     1.622354          5.95
     1.622113          0.71
     1.620773          5.97
     1.603953          1.71
     1.593811          3.44
     1.592736         29.59
     1.591565          3.19
     1.590097          5.64
     1.589264          0.27
     1.588971          1.67
     1.588795          1.93
     1.588334          8.99
     1.588187          6.00
     1.587778          0.52
     1.587310          1.88
     1.579397         11.64
     1.577440          1.42
     1.577238         22.73
     1.559861          2.13
     1.551594          9.03
     1.550173          1.43
     1.549330          2.84
     1.547505          7.42
     1.538391          1.38
     1.537212          1.79
     1.535867          3.11
     1.522314          1.97
     1.522160          4.13
     1.520973          2.14
     1.520484          3.25
     1.520356          0.07
     1.509739          2.81
     1.508430          4.80
     1.507194          1.12
     1.499525          9.79
     1.498450          2.76
     1.484672          4.05
     1.483309          4.10
     1.476619          7.55
     1.476045          0.06
     1.475481          1.00
     1.475229          0.28
     1.473804          5.20
     1.473617          0.57
     1.472767          4.51
     1.472586         12.79
     1.472260          8.50
     1.471995          3.33
     1.471887          6.42
     1.471584         11.21
     1.471250          5.95
     1.465042         13.75
     1.464573          4.98
     1.463846          2.03
     1.463776          8.30
     1.463410          1.73
     1.450101          1.49
     1.449328          3.33
     1.443121          0.08
     1.441452          5.51
     1.440187          2.04
     1.438768          2.12
     1.437978          2.18
     1.432394          2.80
     1.431699         21.42
     1.430954          5.92
     1.430592          4.23
     1.430099          0.13
     1.419222          4.38
     1.418135         13.32
     1.410564          3.87
     1.408314          6.55
     1.406954          7.23
     1.401595          5.06
     1.401434          2.84
     1.400703          7.11
     1.399685          7.80
     1.381508          0.31
     1.381205          0.93
     1.380839          0.73
     1.378212          4.55
     1.378186          3.42
     1.372474          0.99
     1.371792          0.93
     1.371491          2.12
     1.370756          5.42
     1.361279          3.54
     1.360719          0.38
     1.360278          0.30
     1.360000          2.86
     1.359879          3.16
     1.355221          8.32
     1.354402          0.94
     1.352972          1.22
     1.352895          5.78
     1.352265          4.62
     1.352084          8.74
     1.351976         10.77
     1.351716          3.54
     1.351144          4.05
     1.351139          0.92
     1.351011          4.56
     1.350801          7.95
     1.350568         15.25
     1.350435          9.06
     1.350255          2.73
     1.346326          9.75
     1.344667          0.31
     1.344520          4.67
     1.343957          1.14
     1.335475          1.67
     1.333665          5.00
     1.326961          0.09
     1.326260          3.39
     1.325742          2.19
     1.325504          1.21
     1.325232          0.23
     1.325185          0.66
     1.325077          2.64
     1.324693          0.37
     1.324642          0.19
     1.324472          0.39
     1.320656          3.43
     1.319763          1.05
     1.319353          9.93
     1.318771          5.76
     1.318621          2.08
     1.304401          8.16
     1.302888          1.40
     1.302828          0.42
     1.302363          0.93
     1.300684          3.89
     1.296464          3.73
     1.295683          4.29
     1.294851          1.32
     1.294348          1.59
     1.286673          0.11
     1.286065          0.10
     1.285785          7.02
     1.285593          2.22
     1.284986          4.69
     1.284707          2.72
     1.284310          2.22
     1.284243          0.44
     1.280953          0.30
     1.280445          1.40
     1.280077          0.54
     1.279279          0.48
     1.278622          2.65
     1.278303          0.74
     1.277508          2.74
     1.273494          1.17
     1.272935          2.16
     1.271323          0.22
     1.264329          0.34
     1.264240          0.49
     1.263398          1.39
     1.262984          0.83
     1.262704          0.42
     1.262439          3.86
     1.261999          0.03
     1.257889          3.36
     1.257097          2.03
     1.255775          2.37
     1.255626          3.66
     1.255312          2.52
     1.255168         10.01
     1.251172          0.58
     1.250766          3.53
     1.250537          0.88
     1.250313          0.34
     1.250041          2.55
     1.249813          0.57
     1.241716          0.52
     1.237783          0.80
     1.236992          0.23
     1.236123          1.62
     1.235679          0.79
     1.235474          1.77
     1.235055          0.77
     1.234867          5.47
     1.234518          1.06
     1.234078          2.81
     1.230940          1.65
     1.230326          0.70
     1.230103          1.58
     1.229559          5.19
     1.220598          0.42
     1.217851          0.58
     1.217257          4.27
     1.216478          0.66
     1.216087          0.59
     1.215940          0.49
     1.214756          3.56
     1.214720          3.38
     1.214301          4.31
     1.211384          4.91
     1.210068          1.82
     1.210032          2.67
     1.209658          2.15
     1.203386          0.17
     1.202964          0.25
     1.202659          3.66
     1.202226          3.00
     1.201998          1.93
     1.201617         14.89
     1.201452          1.91
     1.197829          1.72
     1.196730          3.12
     1.195461          1.08
     1.192583          0.71
     1.192484          3.72
     1.191728          1.10
     1.191293          1.08
     1.191281          0.16
     1.191229          9.58
     1.191084          1.80
     1.179451          0.58
     1.179034          0.44
     1.178893          1.31
     1.178831          0.12
     1.178593          0.31
     1.178426          3.88
     1.178235          2.10
     1.178062          1.16
     1.177596          1.64
     1.177457          2.06
     1.177000          0.90
     1.174489          3.04
     1.174098          0.87
     1.167451          0.55
     1.166644          1.75
     1.163104          2.31
     1.162448          0.32
     1.162126          0.07
     1.161907          3.37
     1.161750          1.56
     1.161635          0.32
     1.161567          0.03
     1.161358          0.50
     1.160955          0.24
     1.160592          3.66
     1.160589          0.85
     1.160475          0.20
     1.160375          0.65
     1.160227          3.00
     1.159755          0.09
     1.156730          0.97
     1.156635          0.26
     1.156502          0.25
     1.155881          0.35
     1.155610          1.65
     1.150115          1.31
     1.149004          1.75
     1.145136          0.87
     1.144374          0.18
     1.143295          1.01
     1.140946          1.15
     1.140109          0.80
     1.135000          1.65
     1.133333          0.42
     1.133175          1.04
     1.132760          0.61
     1.131068          1.66
     1.130151          0.02
     1.129349          1.06
     1.129262          5.12
     1.128509          0.77
     1.128116          3.66
     1.127962          2.15
     1.125881          2.99
     1.125279          0.59
     1.124977          1.81
     1.124810          0.53
     1.124224          3.31
     1.124196          0.16
     1.123615          0.42
     1.119513          0.11
     1.118962          0.32
     1.118378          1.45
     1.118251          1.48
     1.118067          0.43
     1.117957          0.02
     1.117761          0.40
     1.117668          1.28
     1.117407          0.07
     1.115254          1.25
     1.115011          3.89
     1.114483          0.85
     1.114462          0.77
     1.114270          0.24
     1.113838          0.87
     1.113786          0.15
     1.113504          0.22
     1.113182          0.53
     1.112948          2.49
     1.112918          1.06
     1.112884          6.69
     1.112482          1.33
     1.112416          0.66
     1.112241          2.93
     1.110739          0.97
     1.110281          5.05
     1.109871          3.66
     1.109471          3.35
     1.109427          0.92
     1.109268          1.79
     1.108952          1.02
     1.108922          1.60
     1.108713          1.05
     1.103936          1.42
     1.102913          3.12
     1.101016          1.87
     1.099790          0.13
     1.099350          1.62
     1.098559          1.19
     1.098315          1.27
     1.097929          0.55
     1.097823          0.32
     1.097697          0.52
     1.096231          3.24
     1.095752          0.63
     1.095088          1.65
     1.088815          0.38
     1.086806          0.76
     1.086189          6.08
     1.085992          0.08
     1.085764          0.24
     1.085161          0.65
     1.084513          0.95
     1.084215          2.07
     1.082239          0.70
     1.081667          3.62
     1.081173          1.93
     1.081066          1.82
     1.080880          0.01
     1.080705          2.47
     1.080364          0.81
     1.076597          0.52
     1.076542          1.62
     1.075332          0.65
     1.075159          2.75
     1.075039          1.79
     1.074842          1.80
     1.072754          0.86
     1.072240          0.84
     1.072121          0.49
     1.071384          1.76
     1.071197          3.06
     1.070872          0.86
     1.067743          1.37
##############################################################################
###                            Comments                                    ###
##############################################################################
###   Diffraction pattern calculated by Match!. 
###   I/Ic calculated by Match!. 
###   Space group has been derived from given symmetry operations. 
##############################################################################


