##############################################################################
###               Crystal structure data exported by Match!                ###
##############################################################################
###                           Data published by:                           ###
###                                                                        ###
###               COD (Crystallography Open Database)
##############################################################################
data_2102519
_citation_journal_full    'Acta Crystallographica Section B'
_citation_journal_volume  '60(3)'
_citation_page_first  '287'
_citation_page_last   '292'
_citation_year  '2004'
_citation_title  '30 Space-group corrections: two examples of false polymorphism and oneof incorrect interpretation of the fine details of an IR spectrum'
loop_
_publ_author_name
  'Prof. Clemente Dore Augusto'
  'Prof. Marzotto Armando'
_chemical_formula_sum  'C14 H24 Fe N2 O8'
_chemical_name_common  'bis(Pyridine)-tetra-aqua-iron(ii) diacetate'
_symmetry_space_group_name_H-M 'I 1 2/m 1'
_space_group_IT_number 12
_space_group_crystal_system 'monoclinic'
loop_
_symmetry_equiv_pos_as_xyz
   'x, y, z'
   'x+0.5, y+0.5, z+0.5'
   '-x, y, -z'
   '-x+0.5, y+0.5, -z+0.5'
   '-x, -y, -z'
   '-x+0.5, -y+0.5, -z+0.5'
   'x, -y, z'
   'x+0.5, -y+0.5, z+0.5'
_cell_length_a       11.78000
_cell_length_b        9.73400
_cell_length_c        8.40100
_cell_angle_alpha    90.0000
_cell_angle_beta    104.0500
_cell_angle_gamma    90.0000
_cell_formula_units_Z 2
loop_
_atom_site_label
_atom_site_fract_x
_atom_site_fract_y
_atom_site_fract_z
_atom_site_occupancy
_atom_site_B_iso_or_equiv
fe      0.000   0.000   1.000    1.00000    1.579
o      -0.121   0.155   0.890    1.00000    1.579
n      0.087   0.000   0.794    1.00000    1.579
c      0.110   0.116   0.725    1.00000    1.579
c      0.156   0.120   0.588    1.00000    1.579
c      0.178   0.000   0.519    1.00000    1.579
o      0.353   0.113   0.199    1.00000    1.579
c      0.401   0.000   0.220    1.00000    1.579
c      0.532   0.000   0.279    1.00000    1.579
_cell_measurement_wavelength    1.541874
_cell_measurement_radiation   'x-rays'
_exptl_crystal_density_diffrn    1.350000
loop_
_pd_peak_d_spacing
_pd_peak_intensity
     7.559199        282.24
     7.410139       1000.00
     6.248739        192.15
     5.983909         26.30
     5.713796        113.68
     4.867000        488.45
     4.671998         48.99
     4.092164         10.34
     4.074839         39.85
     3.872958        853.33
     3.834545        770.67
     3.825443        122.81
     3.779600         44.93
     3.775780         58.93
     3.705069        132.92
     3.547258          0.55
     3.354575          2.16
     3.168386         86.99
     3.124369          0.09
     3.121289          1.28
     3.037052         38.97
     3.014533          0.97
     3.007604         54.35
     2.991955         13.06
     2.985172         14.49
     2.856898        121.17
     2.803008         18.56
     2.800295         12.31
     2.770884         27.10
     2.662755         40.97
     2.655307        127.49
     2.622420        181.81
     2.616573          3.97
     2.572577         36.68
     2.561225          1.25
     2.548853         20.31
     2.519733         25.97
     2.509389         12.31
     2.470046         30.30
     2.463794         12.09
     2.433500          5.59
     2.432628          3.14
     2.427212          3.46
     2.418408          7.80
     2.402182        117.62
     2.354225         13.39
     2.335999         15.69
     2.316426          4.99
     2.277151          1.24
     2.254223         41.55
     2.238900         46.81
     2.237636         10.12
     2.230382         19.83
     2.225009          0.62
     2.203155        106.05
     2.192792          0.04
     2.181744          2.27
     2.173351         11.18
     2.119310          4.70
     2.110747         32.94
     2.089284         20.12
     2.085944         72.45
     2.085859          0.36
     2.082913         14.44
     2.073623         10.71
     2.053262          2.76
     2.048686          0.93
     2.046082          9.46
     2.037419         10.21
     2.005043         14.96
     1.994636          1.85
     1.986469         45.21
     1.978704         60.40
     1.969467          8.61
     1.936479         27.76
     1.929945         13.41
     1.924495         17.69
     1.919150          6.53
     1.917272         31.56
     1.912721          2.21
     1.907693         14.46
     1.904599         10.22
     1.893524         10.20
     1.889935          3.34
     1.889800          2.44
     1.887890         16.08
     1.879389         42.46
     1.868506         31.03
     1.855507          4.60
     1.853888         12.66
     1.852535         76.81
     1.849304         24.42
     1.845652          5.90
     1.842662         45.07
     1.836832          0.36
     1.828457         37.45
     1.796335          0.16
     1.786742          2.03
     1.783574         56.26
     1.780183         27.86
     1.773629          5.06
     1.767867          0.00
     1.764170          1.14
     1.761659          2.99
     1.760381         17.38
     1.750436         10.90
     1.746957          0.02
     1.746367          2.62
     1.737768         12.27
     1.734055          2.83
     1.733521          0.56
     1.718465         10.36
     1.709564         20.47
     1.709355          0.16
     1.692021         11.39
     1.681248          0.27
     1.679703          7.01
     1.677287          1.47
     1.671319          1.69
     1.662716          6.07
     1.656577          8.28
     1.654175          0.08
     1.650416          9.39
     1.637341         15.48
     1.622333         12.33
     1.620991          0.01
     1.615985          8.92
     1.610027          2.52
     1.607554          8.51
     1.598313          0.01
     1.594513          2.37
     1.589107          1.48
     1.586214         11.66
     1.584193         12.36
     1.583739          1.11
     1.583702          2.49
     1.583545          0.01
     1.582411          2.60
     1.580715          6.27
     1.578685          0.19
     1.578326          2.94
     1.571061          0.01
     1.570934          0.90
     1.565807          7.91
     1.562996          7.48
     1.562185         16.80
     1.561484          1.14
     1.560645          8.33
     1.557333         16.60
     1.551225          2.50
     1.548582          0.76
     1.547446          1.54
     1.542647         16.67
     1.538860          6.18
     1.537449          1.14
     1.535241         11.43
     1.530744          1.37
     1.518526          3.49
     1.511840         10.58
     1.507266          3.45
     1.506401          5.24
     1.503802         17.88
     1.501663          8.84
     1.499845          0.00
     1.495977          4.75
     1.495097          0.00
     1.493572          2.47
     1.492586         10.03
     1.490895         10.16
     1.490802          2.79
     1.486836          6.31
     1.482028          4.45
     1.478534          5.67
     1.475516          4.16
     1.472391          2.77
     1.469033          8.69
     1.463494          0.04
     1.462753          0.06
     1.460224          1.84
     1.459073          6.86
     1.458329          0.43
     1.456491          5.10
     1.452503          9.77
     1.444039          0.58
     1.443787          0.81
     1.442327          0.32
     1.440223          6.37
     1.429953          0.08
     1.429088          0.19
     1.428449          7.11
     1.426310          5.18
     1.426167          0.22
     1.410740          0.52
     1.405484          8.34
     1.403769          1.02
     1.401504          1.70
     1.400148          1.07
     1.398880          0.11
     1.398762          1.89
     1.392688          9.05
     1.388101          8.31
     1.385442          0.10
     1.383235          1.30
     1.382374          0.00
     1.382069         10.25
     1.380389          5.88
     1.377689         14.87
     1.376651          8.04
     1.374957          2.62
     1.370760          2.96
     1.370635          0.46
     1.369397          0.01
     1.365911          2.59
     1.364055         11.07
     1.362406          0.46
     1.361552          2.69
     1.358280          0.00
     1.351890          1.84
     1.345574          0.33
     1.345460          1.01
     1.343330          2.70
     1.339417          3.45
     1.338197          6.53
     1.335931          7.40
     1.335862          0.04
     1.331377          2.09
     1.330227          4.55
     1.329505          3.03
     1.327653          1.89
     1.327272          0.01
     1.325513          0.00
     1.324406          7.57
     1.320761          5.77
     1.319895          1.72
     1.319217         10.00
     1.314201          4.99
     1.311723          5.02
     1.311210          0.02
     1.308287          2.10
     1.308067          2.06
     1.306481          2.98
     1.306253          0.03
     1.304527          1.75
     1.303661          7.24
     1.301159          1.65
     1.300215          0.00
     1.299775          1.54
     1.295914          3.37
     1.295911          0.45
     1.295716          5.56
     1.294018          2.02
     1.290986          1.16
     1.287330          0.02
     1.286288          1.31
     1.284195          1.73
     1.284191          0.73
     1.280612          4.45
     1.278930          0.26
     1.278182          0.03
     1.277746          0.67
     1.276825          8.05
     1.276448          0.18
     1.275148          0.32
     1.275144          2.36
     1.274426          0.53
     1.271279          4.42
     1.269786          6.32
     1.269136          1.14
     1.263590          0.22
     1.261195          1.09
     1.259867          3.15
     1.259268          1.15
     1.259066          3.05
     1.258593          1.54
     1.258289          1.21
     1.256173          0.08
     1.256030          0.34
     1.254694          3.93
     1.254163          4.09
     1.253697          0.00
     1.250909          1.87
     1.249748          0.02
     1.248346          1.32
     1.248213          0.74
     1.238441          5.65
     1.237824          0.00
     1.237230          1.07
     1.235023          0.19
     1.233514          2.46
     1.232307          2.61
     1.231897          0.61
     1.230961          7.30
     1.228658          1.12
     1.223058          1.74
     1.219831          0.37
     1.219665          1.22
     1.216750          9.46
     1.216641          0.31
##############################################################################
###                            Comments                                    ###
##############################################################################
###   Diffraction pattern calculated by Match!. 
###   I/Ic calculated by Match!. 
##############################################################################


