##############################################################################
###               Crystal structure data exported by Match!                ###
##############################################################################
###                           Data published by:                           ###
###                                                                        ###
###               COD (Crystallography Open Database)
##############################################################################
data_1527638
_citation_journal_full    'Journal of the Physical Society of Japan'
_citation_journal_volume  '19'
_citation_page_first  '540'
_citation_page_last   '549'
_citation_year  '1964'
_citation_title  'Nuclear magnetic resonance and X-Ray studies of potassium ferrocyanidetrihydrate crystal'
loop_
_publ_author_name
  'Kiriyama R.'
  'Niizeki N.'
  'Kiriyama H.'
  'Wada T.'
  'Hirabayashi H.'
_chemical_formula_sum  'C6 H6 Fe K4 N6 O3'
_chemical_name_common  'K4 (Fe (C N)6) (H2 O)3'
_symmetry_space_group_name_H-M 'C 1 2/c 1'
_space_group_IT_number 15
_space_group_crystal_system 'monoclinic'
loop_
_symmetry_equiv_pos_as_xyz
   'x, y, z'
   'x+0.5, y+0.5, z'
   '-x, y, -z+0.5'
   '-x+0.5, y+0.5, -z+0.5'
   '-x, -y, -z'
   '-x+0.5, -y+0.5, -z'
   'x, -y, z+0.5'
   'x+0.5, -y+0.5, z+0.5'
_cell_length_a        9.39600
_cell_length_b       16.85999
_cell_length_c        9.41300
_cell_angle_alpha    90.0000
_cell_angle_beta     90.0500
_cell_angle_gamma    90.0000
_cell_formula_units_Z 4
loop_
_atom_site_label
_atom_site_fract_x
_atom_site_fract_y
_atom_site_fract_z
_atom_site_occupancy
_atom_site_B_iso_or_equiv
o      0.250   0.500   0.000    1.00000    1.000
c      0.000   0.303   0.250    1.00000    1.000
k      0.188   0.850   0.156    1.00000    1.000
fe      0.000   0.179   0.250    1.00000    1.000
c      0.067   0.179   0.055    1.00000    1.000
n      0.000   0.003   0.250    1.00000    1.000
n      0.000   0.354   0.250    1.00000    1.000
n      0.095   0.179   0.937    1.00000    1.000
o      0.000   0.467   0.750    1.00000    1.000
c      0.190   0.179   0.314    1.00000    1.000
c      0.000   0.052   0.250    1.00000    1.000
k      0.095   0.646   0.444    1.00000    1.000
n      0.301   0.179   0.353    1.00000    1.000
_cell_measurement_wavelength    1.541874
_cell_measurement_radiation   'x-rays'
_exptl_crystal_density_diffrn    1.854000
loop_
_pd_peak_d_spacing
_pd_peak_intensity
     8.429995        842.78
     8.207509         73.77
     6.279781        129.06
     6.188508        142.47
     6.183836        129.99
     4.823089         77.56
     4.706498         62.86
     4.697998         71.65
     4.293206         47.26
     4.291645         29.13
     4.214997        270.06
     4.109416         30.36
     4.103754         23.65
     4.084190          2.41
     4.081503        258.54
     3.846929         24.09
     3.762850        509.11
     3.760749          0.76
     3.369216          1.82
     3.367707        237.13
     3.326439         65.25
     3.323538         68.60
     3.173806        130.57
     3.139890          0.28
     3.137363          0.25
     3.094254         64.17
     3.091918         56.76
     3.079318          1.93
     3.007723          0.19
     3.007186          0.20
     2.976913         12.52
     2.975872          0.49
     2.940583          1.43
     2.931547       1000.00
     2.930057          1.10
     2.927437          0.87
     2.925952        979.44
     2.809998        688.90
     2.735836          5.69
     2.692582         92.70
     2.631763         28.89
     2.631044          6.66
     2.630632          7.34
     2.629555          1.40
     2.627660          2.18
     2.626587          7.43
     2.611223         71.94
     2.609819         72.08
     2.577809          7.58
     2.575783          1.72
     2.516875          0.16
     2.493493          9.71
     2.491659          5.78
     2.412692          2.47
     2.411544          1.05
     2.366043         18.17
     2.364476          2.50
     2.353249         30.31
     2.348999         25.94
     2.336349         47.74
     2.335846         58.57
     2.333134         11.35
     2.294817         12.45
     2.266593         13.68
     2.264721         20.48
     2.264492         10.59
     2.262794         11.54
     2.262561          1.13
     2.261647          0.01
     2.231661        374.70
     2.231003          0.07
     2.229846          0.00
     2.229190        369.00
     2.219204          4.67
     2.217911          5.13
     2.200538          1.59
     2.199697         11.91
     2.198688          5.45
     2.196803          3.29
     2.146603         10.51
     2.145823         16.41
     2.115309          3.69
     2.114562          0.08
     2.107499          3.97
     2.104784          3.47
     2.103313        182.24
     2.102501        180.51
     2.101035          2.57
     2.093260         42.91
     2.090560          6.18
     2.090200        115.07
     2.063208          5.36
     2.062836          0.87
     2.062169          8.84
     2.061279          2.93
     2.056583          1.17
     2.054708         25.58
     2.051877         35.32
     2.042095          6.39
     2.040752         49.30
     2.040009         49.66
     2.038670          3.99
     2.005117          0.05
     2.004481         10.30
     1.923465         32.31
     1.922883         21.54
     1.912464         20.17
     1.911636         20.42
     1.909285         10.51
     1.890587         14.15
     1.890053          5.08
     1.884107         81.88
     1.883844          0.22
     1.883061          2.61
     1.882007         88.08
     1.881425         85.32
     1.880375          1.75
     1.872447         75.34
     1.872058          0.23
     1.871375          1.28
     1.870987         73.60
     1.870543         30.67
     1.868995          0.03
     1.867634         29.27
     1.852843          0.67
     1.851714          0.02
     1.837340         80.68
     1.837174          9.18
     1.836048          0.15
     1.835252         21.19
     1.834642          0.45
     1.834584         78.92
     1.832227          0.09
     1.831621         23.46
     1.804153          9.16
     1.803209         24.50
     1.803093         18.57
     1.802236          9.71
     1.784733         55.61
     1.783388          0.01
     1.782206         52.29
     1.780273          0.23
     1.779827          1.07
     1.770303          6.47
     1.769865         22.30
     1.769574         10.57
     1.768918          1.00
     1.754002          1.97
     1.753470          2.86
     1.751361          2.08
     1.750831          0.95
     1.749489          0.02
     1.736468          0.98
     1.735436          0.18
     1.718935         12.93
     1.717877          0.12
     1.716678         12.51
     1.711629          6.61
     1.711508          1.12
     1.711310          9.91
     1.710640          1.34
     1.685999         10.28
     1.684608          0.50
     1.683854         75.62
     1.683437         74.77
     1.682684          0.03
     1.667169          3.58
     1.666256          1.68
     1.663220         16.51
     1.661769         17.73
     1.659588          9.92
     1.657020          3.08
     1.656661          1.51
     1.643475          0.08
     1.642425          6.41
     1.641502          0.03
     1.639761          2.08
     1.639239          0.68
     1.631764          0.69
     1.631432          1.37
     1.630661          2.99
     1.630393          0.75
     1.619385          5.17
     1.618966          0.37
     1.617306          0.79
     1.616889          6.42
     1.614690          5.47
     1.613859          0.26
     1.607696          0.01
     1.606817          2.57
     1.605591          0.34
     1.605462          0.44
     1.604239          3.77
     1.587230          0.04
     1.586903          0.03
     1.585517          4.93
     1.585281          3.45
     1.584866          3.49
     1.584630          5.02
     1.569945          0.76
     1.568833          1.95
     1.568681          3.14
     1.565999          2.31
     1.564897          1.66
     1.564746          7.81
     1.564033          6.68
     1.563235         10.19
     1.562331          6.58
     1.551440          1.17
     1.550336          1.60
     1.550305          6.48
     1.550220          2.90
     1.549570         10.17
     1.549119          1.29
     1.547488          0.53
     1.547196          1.79
     1.547127          2.85
     1.545959          2.31
     1.542351          1.36
     1.541152          0.22
     1.540718          0.00
     1.539659          1.67
     1.521592          0.01
     1.521175          0.73
     1.519675          0.37
     1.519259          0.01
     1.512732         28.19
     1.503861          8.22
     1.503593          5.93
     1.493601          0.02
     1.493535          0.44
     1.492089          0.10
     1.491696          0.11
     1.489266         21.74
     1.488745          2.04
     1.488456          2.38
     1.488446         77.75
     1.487936         15.09
     1.487666         12.36
     1.486294         15.31
     1.485517         78.31
     1.485167          5.75
     1.484280          9.78
     1.483636          4.67
     1.483050         27.06
     1.482278          2.71
     1.481599         26.66
     1.470292          0.00
     1.467959          0.03
     1.465774          5.18
     1.465276          9.65
     1.465028          0.04
     1.464966          2.07
     1.463735          0.67
     1.463718          0.03
     1.463523          0.95
     1.463426          6.99
     1.462976          5.52
     1.462287          0.28
     1.455946          0.07
     1.455033          0.31
     1.454938          0.52
     1.454027          0.46
     1.450608          0.00
     1.450246          0.13
     1.448246          1.05
     1.448006          0.61
     1.447814          1.58
     1.446618          0.68
     1.440229         12.45
     1.440111          8.94
     1.431292         10.10
     1.431069          2.43
     1.430548          5.47
     1.430368          8.83
     1.421311          2.79
     1.420179          0.45
     1.416260          5.70
     1.415924          0.99
     1.413508          0.31
     1.412951          2.88
     1.406560          4.77
     1.406230          3.72
     1.404999          7.71
     1.404002         28.04
     1.403507         11.69
     1.403425          0.16
     1.402853          1.93
     1.402771         27.61
     1.401702          0.61
     1.401050         11.50
##############################################################################
###                            Comments                                    ###
##############################################################################
###   Diffraction pattern calculated by Match!. 
###   I/Ic calculated by Match!. 
###   Space group has been derived from given symmetry operations. 
##############################################################################


