##############################################################################
###               Crystal structure data exported by Match!                ###
##############################################################################
###                           Data published by:                           ###
###                                                                        ###
###               COD (Crystallography Open Database)
##############################################################################
data_2020234
_citation_journal_full    'Acta Crystallographica C (39,1983-)'
_citation_journal_volume  '45'
_citation_page_first  '1207'
_citation_page_last   '1210'
_citation_year  '1989'
_citation_title  'Structures of the potassium nitroprusside 2.5 and 0.8 hydrates'
loop_
_publ_author_name
  'Castellano E.E.'
  'Rivero B.E.'
  'Amalvy J.I.'
  'Piro O.E.'
_chemical_formula_sum  'C5 H1.6 Fe K2 N6 O1.8'
_chemical_name_common  'K2 (Fe (C N)5 (N O)) (H2 O)0.8'
_symmetry_space_group_name_H-M 'P n a 21'
_space_group_IT_number 33
_space_group_crystal_system 'orthorhombic'
loop_
_symmetry_equiv_pos_as_xyz
   'x, y, z'
   '-x, -y, z+0.5'
   '-x+0.5, y+0.5, z+0.5'
   'x+0.5, -y+0.5, z'
_cell_length_a       30.00000
_cell_length_b       11.27200
_cell_length_c       16.05300
_cell_angle_alpha    90.0000
_cell_angle_beta     90.0000
_cell_angle_gamma    90.0000
_cell_formula_units_Z 20
loop_
_atom_site_label
_atom_site_fract_x
_atom_site_fract_y
_atom_site_fract_z
_atom_site_occupancy
_atom_site_B_iso_or_equiv
n      0.038   0.489   0.124    1.00000    1.000
n      0.171   0.308   0.417    1.00000    1.000
fe      0.117   0.018   0.484    1.00000    1.000
fe      0.118   0.511   -0.001    1.00000    1.000
c      0.247   0.189   0.754    1.00000    1.000
n      0.249   -0.246   0.755    1.00000    1.000
n      0.186   0.523   0.648    1.00000    1.000
c      0.140   -0.105   -0.047    1.00000    1.000
o      0.156   0.184   -0.083    1.00000    1.000
c      0.071   0.495   0.080    1.00000    1.000
o      0.149   0.025   0.748    1.00000    1.000
c      0.164   0.009   0.407    1.00000    1.000
n      0.166   0.316   0.088    1.00000    1.000
k      0.497   0.728   0.501    1.00000    1.000
n      0.138   0.118   -0.040    1.00000    1.000
c      0.309   0.022   0.748    1.00000    1.000
c      0.162   0.521   0.594    1.00000    1.000
n      0.157   -0.165   -0.102    1.00000    1.000
o      0.060   -0.138   -0.250    1.00000    1.000
fe      0.116   0.017   0.016    1.00000    1.000
c      0.247   0.022   0.635    1.00000    1.000
n      0.142   0.119   0.543    1.00000    1.000
c      0.147   -0.102   0.554    1.00000    1.000
k      0.069   0.651   0.251    1.00000    1.000
c      0.091   -0.102   0.419    1.00000    1.000
n      0.195   0.019   0.359    1.00000    1.000
n      0.190   0.025   0.149    1.00000    1.000
c      0.083   0.111   0.407    1.00000    1.000
n      0.250   0.039   0.943    1.00000    1.000
c      0.161   0.507   -0.088    1.00000    1.000
o      -0.020   -0.236   0.250    1.00000    1.000
n      0.033   0.008   0.602    1.00000    1.000
n      0.145   0.609   0.055    1.00000    1.000
k      0.252   -0.002   0.252    1.00000    1.000
c      0.165   0.022   0.100    1.00000    1.000
n      0.058   0.670   0.601    1.00000    1.000
o      0.159   0.180   0.586    1.00000    1.000
n      0.063   0.171   0.360    1.00000    1.000
o      0.163   0.678   0.411    1.00000    1.000
n      0.250   0.030   0.562    1.00000    1.000
c      0.088   -0.109   0.077    1.00000    1.000
n      0.069   0.317   -0.102    1.00000    1.000
n      0.071   -0.179   0.117    1.00000    1.000
k      0.001   0.226   0.505    1.00000    1.000
c      0.085   0.121   0.094    1.00000    1.000
c      0.087   0.391   -0.065    1.00000    1.000
k      0.246   0.704   0.573    1.00000    1.000
k      0.135   0.699   -0.248    1.00000    1.000
k      0.147   0.241   0.251    1.00000    1.000
c      0.069   0.487   0.426    1.00000    1.000
c      0.149   0.381   0.451    1.00000    1.000
n      0.059   0.676   -0.109    1.00000    1.000
o      0.250   0.826   0.061    1.00000    1.000
o      0.161   0.688   0.086    1.00000    1.000
n      0.046   0.469   0.368    1.00000    1.000
n      0.142   0.618   0.453    1.00000    1.000
c      0.064   0.005   -0.045    1.00000    1.000
k      0.002   0.329   0.251    1.00000    1.000
fe      0.118   0.512   0.503    1.00000    1.000
n      0.032   0.000   -0.086    1.00000    1.000
c      0.064   0.011   0.561    1.00000    1.000
n      0.073   -0.173   0.382    1.00000    1.000
n      0.346   0.025   0.749    1.00000    1.000
n      0.249   0.289   0.752    1.00000    1.000
c      0.248   -0.145   0.753    1.00000    1.000
n      0.070   0.330   0.601    1.00000    1.000
n      0.191   0.526   -0.136    1.00000    1.000
fe      0.243   0.021   0.752    1.00000    1.000
n      0.161   -0.178   0.588    1.00000    1.000
c      0.082   0.612   -0.067    1.00000    1.000
c      0.151   0.395   0.056    1.00000    1.000
n      0.064   0.166   0.143    1.00000    1.000
n      0.188   0.023   0.748    1.00000    1.000
c      0.249   0.029   0.874    1.00000    1.000
c      0.089   0.391   0.566    1.00000    1.000
k      0.253   0.210   0.429    1.00000    1.000
o      0.071   -0.492   -0.243    1.00000    1.000
c      0.080   0.619   0.564    1.00000    1.000
k      0.023   0.978   0.253    1.00000    1.000
_cell_measurement_wavelength    1.541874
_cell_measurement_radiation   'x-rays'
_exptl_crystal_density_diffrn    1.877000
loop_
_pd_peak_d_spacing
_pd_peak_intensity
    15.000000         44.93
    10.959969         23.51
    10.551757          2.42
     9.224950        177.80
     9.011252          7.92
     8.817495         50.41
     8.026500        288.77
     7.857866         16.76
     7.500000         55.44
     7.480534         11.76
     7.077008        108.30
     6.794978         25.21
     6.780491         67.92
     6.388305          7.67
     6.244125         13.14
     5.993629         18.46
     5.819395          9.62
     5.636000        225.60
     5.539100        160.16
     5.479985        780.81
     5.472378          3.55
     5.296405         19.02
     5.275878         39.52
     5.236155          2.14
     5.039914          1.61
     5.029719          2.11
     5.012130          0.82
     5.000000         35.54
     4.928429         24.17
     4.909890          1.71
     4.833970          0.80
     4.773800          1.63
     4.772412         46.42
     4.695188          3.27
     4.612475         40.69
     4.600955         28.40
     4.570528          0.23
     4.558906          0.72
     4.505626        158.59
     4.420704          7.06
     4.408747         64.51
     4.395831         34.73
     4.355975          7.23
     4.352151          0.85
     4.337998         10.00
     4.243923          0.66
     4.188404          3.61
     4.107912          1.30
     4.063138        109.72
     4.013250        252.62
     4.005937          3.49
     3.979677         30.39
     3.971745          0.40
     3.928933       1000.00
     3.886746          1.20
     3.876888          4.26
     3.848509          0.34
     3.764278          2.40
     3.756887         17.42
     3.751097          0.53
     3.750000        163.19
     3.740267         62.60
     3.728207         10.69
     3.666108          1.93
     3.658459         24.61
     3.656815          0.71
     3.653323          9.62
     3.651688          4.40
     3.644729          1.01
     3.642699          0.38
     3.631555          5.39
     3.617727          0.33
     3.584325          0.70
     3.558256          5.91
     3.554271         23.68
     3.538504          2.06
     3.536453          6.19
     3.517252          0.81
     3.475347         70.11
     3.473939         28.14
     3.446556          0.32
     3.435751          0.71
     3.411437          6.73
     3.397489         58.64
     3.390246         25.41
     3.381257         38.15
     3.376064         13.98
     3.359346          0.08
     3.336920         35.76
     3.318612          7.42
     3.288121          0.22
     3.269132         41.25
     3.258453          7.52
     3.252939          1.69
     3.249893          8.70
     3.221522          8.47
     3.206852         32.84
     3.198691         14.62
     3.196497          6.30
     3.194153         33.56
     3.184462          5.58
     3.139626          6.17
     3.139490          0.41
     3.134951         35.76
     3.129772          0.79
     3.123596         47.65
     3.122062          2.38
     3.107304         23.20
     3.098879          3.18
     3.087789          4.02
     3.074983          9.96
     3.071562         40.25
     3.070960         11.08
     3.065608          3.63
     3.064641          4.80
     3.058957         11.65
     3.024375          7.18
     3.015684          0.51
     3.012339          2.06
     3.003751          0.30
     3.000000         96.45
     2.996814        158.74
     2.969669          0.30
     2.962966          7.96
     2.960011         15.04
     2.952509          0.58
     2.951532          2.94
     2.950342          9.59
     2.948947          7.02
     2.939165         24.82
     2.909698         35.13
     2.899080          0.39
     2.876574         42.13
     2.870679          9.39
     2.869093          8.41
     2.855271          0.12
     2.852930          6.47
     2.845137         39.25
     2.835207          0.44
     2.825284          0.03
     2.824338         19.19
     2.818000        137.97
     2.813212          1.00
     2.810130         35.35
     2.805649          5.42
     2.782519         34.72
     2.777721          1.23
     2.769550         15.14
     2.763756          0.04
     2.745547         10.21
     2.744159         89.90
     2.742675          0.59
     2.739992        413.79
     2.736533        790.24
     2.736189        137.46
     2.731457         16.07
     2.729230          0.17
     2.726674          2.27
     2.712361          0.80
     2.701680         11.81
     2.701593          6.47
     2.698112          2.31
     2.696630         17.61
     2.687103          0.26
     2.675500        144.58
     2.674454          0.61
     2.665007         38.87
     2.662462          4.72
     2.658890          0.64
     2.654239          5.91
     2.650787          0.50
     2.648508          0.59
     2.648203          5.28
     2.645153          0.92
     2.637939         15.18
     2.633929         35.49
     2.627190          1.92
     2.619289         28.92
     2.618686         23.29
     2.618077         76.21
     2.616801          0.14
     2.615370         20.06
     2.614686          1.81
     2.612888         13.92
     2.603028          1.49
     2.599252          7.15
     2.593429          0.15
     2.575989          4.04
     2.569610         47.63
     2.564838          3.81
     2.550684          2.42
     2.549014          1.89
     2.529644          7.88
     2.528559         16.88
     2.520028          1.73
     2.519957         33.59
     2.519216          0.05
     2.519083          0.74
     2.517073          2.95
     2.514860          8.17
     2.506065         12.64
     2.505272         29.92
     2.500325          0.00
     2.500000         60.05
     2.498418         22.21
     2.494553          0.21
     2.493511          1.08
     2.484809          0.08
     2.470224          3.68
     2.464215         20.43
     2.463964          3.72
     2.459627          1.98
     2.459251          6.85
     2.454945          3.32
     2.440867         21.80
     2.440692          4.44
     2.438853          2.71
     2.436170          3.53
     2.432828          1.72
     2.430893          7.44
     2.426732          1.93
     2.419307          0.64
     2.416985         20.51
     2.412962          0.35
     2.409179         16.59
     2.404779          4.76
     2.402853          5.67
     2.388096          1.69
     2.386900          9.57
     2.386206         16.19
     2.383697         23.01
     2.381251         19.96
     2.377791          2.31
     2.375308          1.47
     2.373448          2.44
     2.371251         60.96
     2.366050          1.41
     2.359003          8.68
     2.354596          3.13
     2.350051          3.19
     2.349337          2.97
     2.347594          7.86
     2.344391          0.45
     2.338015          8.53
     2.335121          0.12
     2.333993          0.21
     2.329669         11.80
     2.321041          0.18
     2.319783         13.12
     2.310225          0.04
     2.308980          0.78
     2.306238         84.24
     2.302479          0.40
     2.300478        139.92
     2.299453          2.52
     2.285264         56.24
     2.279453          0.80
     2.266945          0.63
     2.265234          2.51
     2.264993          0.26
     2.262454         11.71
     2.260939          0.30
     2.260800          0.69
     2.260164          5.19
     2.259385          1.53
     2.252813         83.84
     2.250364          0.03
     2.248062          0.22
     2.247249          2.18
     2.241919          0.18
     2.240970          3.94
     2.238707          1.00
     2.238278          0.22
     2.232493          0.75
     2.231328          0.82
     2.230952          7.26
     2.229362          6.19
     2.226337          3.26
     2.224900          2.65
     2.222445          0.30
     2.220606          1.65
     2.213859          4.10
     2.211854          1.94
     2.210352          2.75
     2.208170          1.06
     2.207133          0.31
     2.204374         10.91
     2.199207          4.67
     2.197915        131.15
     2.193456          0.19
     2.193055          0.64
     2.192567          0.65
     2.191994          0.03
     2.186563          4.10
     2.178856          0.38
     2.177987          3.77
     2.176124          0.34
     2.176075          2.77
     2.173693         40.13
     2.168999         11.07
     2.164757          4.99
     2.158975          0.80
     2.156775          2.24
     2.155174          6.91
     2.152692          1.53
     2.152022          2.89
     2.151687          1.48
     2.148046          2.90
     2.147340          0.41
     2.142857          0.38
     2.139710         19.78
     2.139341          4.31
     2.138435          1.23
     2.135604          1.43
     2.132942          6.44
     2.129435          6.31
     2.128140          0.73
     2.124017          0.06
     2.121961          2.24
     2.121032          3.33
     2.120993          3.94
     2.118866          0.64
     2.117989          0.07
     2.116954          0.06
     2.112648          1.76
     2.110351          4.07
     2.105267          0.12
     2.105155          1.58
     2.104481          0.58
     2.103187          2.88
     2.101628         20.17
     2.097106          1.95
     2.094202          4.20
     2.092849          0.37
     2.092349          0.08
     2.087284          1.85
     2.085333          1.48
     2.084871          0.15
     2.084490          1.57
     2.082553          1.09
     2.081375          0.11
     2.078608          0.40
     2.077812          0.45
     2.077548          8.04
     2.076305          7.80
     2.072584          2.44
     2.071947          0.59
     2.070346          1.87
     2.064098          1.66
     2.063802          1.15
     2.057903          0.16
     2.055159          0.05
     2.053956          0.00
     2.051661          1.40
     2.049736          8.45
     2.048468          5.34
     2.045690          3.04
     2.044108         25.65
     2.043781          2.11
     2.042922          7.72
     2.040985          0.21
     2.040380          6.57
     2.038521          0.16
     2.038199          0.00
     2.037347          0.50
     2.036283          4.48
     2.034113         18.36
     2.031569         19.64
     2.030863          9.17
     2.024304          0.01
     2.014738          0.05
     2.006625         55.41
     2.002969         54.26
     2.002389          1.67
     2.002152          4.57
     1.997876          0.00
     1.997138          0.21
     1.996771        124.03
     1.996604          0.72
     1.995197          0.62
     1.990932          0.01
     1.990235          3.52
     1.989839         54.95
     1.989278          1.00
     1.988907         10.29
     1.987557          1.00
     1.985872         14.06
     1.983471          0.01
     1.979963          1.02
     1.972527          6.70
     1.971296          0.12
     1.969755          0.93
     1.969335          1.07
     1.969243          3.17
     1.966419          0.01
     1.966161          0.09
     1.964467         99.81
     1.963190          0.48
     1.961314          0.96
     1.959763          1.91
     1.959005         20.66
     1.958651          0.66
     1.957482          3.30
     1.956727          1.90
     1.956443          0.59
     1.955057          4.23
     1.954591          0.91
     1.953329          3.73
     1.951830          3.37
     1.950172          5.74
     1.948859          3.59
     1.945320          0.28
     1.943373          0.26
     1.943001          0.58
     1.942659          3.77
     1.941024          0.89
     1.940286          2.65
     1.939798          0.92
     1.938444          0.53
     1.938107          0.18
     1.936273          2.52
     1.936241          5.88
     1.933957          0.17
     1.932131          0.06
     1.928618          4.61
     1.927623          7.24
     1.924254         32.23
     1.921024          6.07
     1.918524          2.91
     1.918287          6.88
     1.917545          0.45
     1.912523          5.70
     1.910401          1.12
     1.909936          3.35
     1.904763          4.23
     1.903836         10.44
     1.903224          4.92
     1.901311          0.19
     1.898714          6.58
     1.896558          2.37
     1.894034          1.13
     1.893351          6.92
     1.890384         13.38
     1.890276          0.01
     1.886642          1.21
     1.885291          2.49
     1.884842          2.12
     1.884302          1.95
     1.883066          2.84
     1.882139          0.12
     1.878667         53.55
     1.878473          0.07
     1.878444         45.95
     1.876466          2.32
     1.875859          0.04
     1.875549         34.39
     1.875000         33.71
     1.874994         31.73
     1.871983          0.25
     1.870133          0.98
     1.869471          5.66
     1.867850          4.60
     1.867413          0.48
     1.864244          5.23
     1.864103          0.21
     1.863342          0.09
     1.862334         10.26
     1.862252          0.50
     1.861793          8.11
     1.861415          0.58
     1.860949          2.39
     1.857571          1.18
     1.857486          3.37
     1.854904          2.12
     1.851661          0.40
     1.849586          0.22
     1.849026          0.19
     1.848493          6.04
     1.848251          2.67
     1.848069          4.09
     1.847669          0.05
     1.846367          1.86
     1.846155          1.89
     1.845735          0.64
     1.844990          0.39
     1.844120          0.41
     1.841511          3.48
     1.840227          0.72
     1.837430          2.33
     1.837346          0.03
##############################################################################
###                            Comments                                    ###
##############################################################################
###   Diffraction pattern calculated by Match!. 
###   I/Ic calculated by Match!. 
###   Space group has been derived from given symmetry operations. 
##############################################################################


