##############################################################################
###               Crystal structure data exported by Match!                ###
##############################################################################
###                           Data published by:                           ###
###                                                                        ###
###               COD (Crystallography Open Database)
##############################################################################
data_2020233
_citation_journal_full    'Acta Crystallographica C (39,1983-)'
_citation_journal_volume  '45'
_citation_page_first  '1207'
_citation_page_last   '1210'
_citation_year  '1989'
_citation_title  'Structures of the potassium nitroprusside 2.5 and 0.8 hydrates'
loop_
_publ_author_name
  'Castellano E.E.'
  'Rivero B.E.'
  'Piro O.E.'
  'Amalvy J.I.'
_chemical_formula_sum  'C5 H5 Fe K2 N6 O3.5'
_chemical_name_common  'K2 (Fe (C N)5 (N O)) (H2 O)2.5'
_symmetry_space_group_name_H-M 'P 1 21/n 1'
_space_group_IT_number 14
_space_group_crystal_system 'monoclinic'
loop_
_symmetry_equiv_pos_as_xyz
   'x, y, z'
   '-x+0.5, y+0.5, -z+0.5'
   '-x, -y, -z'
   'x+0.5, -y+0.5, z+0.5'
_cell_length_a       10.05400
_cell_length_b       24.51000
_cell_length_c       11.01800
_cell_angle_alpha    90.0000
_cell_angle_beta    109.6000
_cell_angle_gamma    90.0000
_cell_formula_units_Z 8
loop_
_atom_site_label
_atom_site_fract_x
_atom_site_fract_y
_atom_site_fract_z
_atom_site_occupancy
_atom_site_B_iso_or_equiv
k      0.661   0.049   0.972    1.00000    1.000
n      0.319   0.093   0.939    1.00000    1.000
c      0.222   0.088   0.846    1.00000    1.000
c      0.957   0.077   0.819    1.00000    1.000
o      0.709   0.184   -0.316    1.00000    1.000
c      0.015   0.150   0.666    1.00000    1.000
n      0.531   0.319   -0.171    1.00000    1.000
n      0.889   0.320   0.147    1.00000    1.000
c      0.888   0.309   -0.176    1.00000    1.000
n      0.897   0.078   0.890    1.00000    1.000
c      0.737   0.198   -0.007    1.00000    1.000
n      0.986   0.195   0.641    1.00000    1.000
n      0.094   -0.048   0.773    1.00000    1.000
c      0.874   0.058   0.573    1.00000    1.000
o      0.272   0.026   0.233    1.00000    1.000
n      0.752   0.212   -0.232    1.00000    1.000
k      0.095   0.111   0.139    1.00000    1.000
fe      0.058   0.074   0.696    1.00000    1.000
c      0.632   0.292   -0.144    1.00000    1.000
n      0.937   0.343   -0.219    1.00000    1.000
n      0.692   0.166   0.043    1.00000    1.000
c      0.081   -0.003   0.741    1.00000    1.000
n      0.111   0.208   0.011    1.00000    1.000
fe      0.806   0.252   -0.102    1.00000    1.000
o      0.244   0.254   -0.197    1.00000    1.000
c      0.996   0.222   -0.032    1.00000    1.000
k      0.405   0.203   0.021    1.00000    1.000
c      0.858   0.294   0.055    1.00000    1.000
o      0.489   0.069   -0.273    1.00000    1.000
o      0.479   0.061   0.466    1.00000    1.000
n      0.764   0.051   0.499    1.00000    1.000
o      0.191   0.074   0.512    1.00000    1.000
n      0.141   0.073   0.589    1.00000    1.000
k      0.761   0.136   0.310    1.00000    1.000
o      0.559   0.043   0.170    1.00000    1.000
_cell_measurement_wavelength    1.541874
_cell_measurement_radiation   'x-rays'
_exptl_crystal_density_diffrn    1.735000
loop_
_pd_peak_d_spacing
_pd_peak_intensity
    12.255000        224.10
     9.557865         21.82
     8.834744        973.64
     8.573410         18.35
     8.092609          9.46
     7.920456         40.09
     7.494118         13.61
     7.024982       1000.00
     6.419829         21.29
     6.186437          0.10
     6.127500         41.82
     6.057427         66.41
     5.914537        277.70
     5.880502        581.95
     5.430290         40.97
     5.276639        369.61
     5.249295         53.62
     5.189794         13.04
     5.144734          0.08
     5.077225         57.85
     4.985152        261.93
     4.921586         87.62
     4.886091        112.05
     4.865900          3.66
     4.778933        125.88
     4.735723         22.23
     4.649725         60.10
     4.618525        213.44
     4.489778         10.68
     4.432540         28.83
     4.417372        254.13
     4.380686        457.91
     4.353485        372.47
     4.307808        203.45
     4.286705         34.45
     4.256141         54.67
     4.255506         30.67
     4.222609        658.14
     4.097174        610.69
     4.085000        430.54
     4.046304        153.07
     4.040276        664.05
     3.965618        506.40
     3.960228        152.40
     3.867496        116.29
     3.818510        123.86
     3.810556        588.87
     3.801861          6.72
     3.801209        146.12
     3.795926         13.26
     3.750997          0.51
     3.747059         88.51
     3.687780         19.31
     3.671656         20.73
     3.670825         54.84
     3.630336          0.54
     3.621628         50.88
     3.605966          0.24
     3.563638         57.64
     3.516461          7.13
     3.512491          8.36
     3.495617          6.19
     3.481527         17.44
     3.425898         74.81
     3.405928          0.60
     3.386822         27.96
     3.360369          3.87
     3.354932        102.85
     3.349487         13.56
     3.348374        189.39
     3.329708          9.84
     3.318642         55.59
     3.317739          7.00
     3.284195         25.21
     3.264441         77.28
     3.258980         39.55
     3.252099          0.95
     3.241515          2.83
     3.230981         38.68
     3.226904         86.99
     3.209914         38.93
     3.191594         59.99
     3.185955        533.31
     3.159936          5.43
     3.148993         94.36
     3.131278         10.61
     3.128640          8.09
     3.113389         55.98
     3.107761         41.59
     3.099148         36.59
     3.093218          1.17
     3.063750        288.90
     3.057323        512.80
     3.031422         11.03
     3.028713        221.43
     3.027038          4.29
     3.012766         19.00
     3.005851         78.70
     2.994922          7.17
     2.964162         23.17
     2.957268         38.50
     2.946815         57.70
     2.944915         54.34
     2.940251        128.68
     2.939044        281.85
     2.938417        176.84
     2.938292        153.53
     2.933670         58.03
     2.925745         17.07
     2.915037        242.39
     2.902591        122.19
     2.885068         75.98
     2.865480          2.97
     2.865147         27.24
     2.864754         60.44
     2.857803        475.28
     2.849702         29.73
     2.839857         30.71
     2.838573        172.18
     2.826698        287.92
     2.815449          0.00
     2.806521        243.44
     2.801156         10.74
     2.786438          1.24
     2.783132        128.24
     2.772645         14.11
     2.772014         13.41
     2.765542         38.60
     2.755073          4.55
     2.733947         93.45
     2.731530         75.65
     2.730388         90.21
     2.715145         42.73
     2.711777        237.06
     2.704296        340.94
     2.697536         37.71
     2.690720         28.31
     2.686995         40.91
     2.682021          2.49
     2.670992         25.37
     2.661594         36.53
     2.655672          8.29
     2.654280         90.66
     2.640152          2.48
     2.639911         24.87
     2.638320         48.70
     2.634174         71.83
     2.625569        215.97
     2.624647         62.68
     2.617291         28.45
     2.610357         59.38
     2.607259         46.54
     2.605169         60.67
     2.595534         20.97
     2.594897         20.11
     2.590117          0.15
     2.589968          0.45
     2.589894          0.50
     2.580476          0.13
     2.576587         23.79
     2.572367        180.39
     2.552493         43.84
     2.538612         56.84
     2.533654          7.35
     2.528344         94.07
     2.526073         49.81
     2.525596          0.01
     2.507890         21.38
     2.498039          1.70
     2.493086         57.83
     2.492576        213.33
     2.484482         43.60
     2.483851          0.07
     2.480288          5.40
     2.473151         71.85
     2.468882          0.35
     2.461057         19.05
     2.460793         23.48
     2.451000         11.54
     2.447053          0.04
     2.443045        200.50
     2.436423         82.67
     2.435343          1.71
     2.434349         47.33
     2.432950        199.60
     2.429217          8.80
     2.420378          0.01
     2.420112         23.95
     2.413350          5.23
     2.411484        103.16
     2.400060         41.84
     2.397479         61.83
     2.396938         32.94
     2.390076         92.30
     2.389883         52.60
     2.389466         22.55
     2.388262          0.63
     2.385478         18.78
     2.385397        260.74
     2.384536         34.84
     2.372838         11.74
     2.369743         28.06
     2.367861          3.33
     2.360812          8.50
     2.356888          5.68
     2.356604         16.94
     2.356590         11.10
     2.356233         34.42
     2.352147         10.67
     2.346193         20.71
     2.344737          1.96
     2.344516          9.15
     2.341661         22.66
     2.330917          5.58
     2.324863          3.35
     2.324590          7.55
     2.314595          3.83
     2.312646          0.59
     2.309263         36.18
     2.302530          9.98
     2.298681          0.04
     2.294119          8.44
     2.293717         38.14
     2.293393        144.67
     2.290661          6.81
     2.280473          4.15
     2.274270          0.05
     2.274015          0.28
     2.272858          0.01
     2.272642         27.85
     2.272053          8.55
     2.272049          9.48
     2.264656          6.64
     2.260678          0.70
     2.260462        180.65
     2.254609          0.53
     2.254417          0.07
     2.244889         26.66
     2.230013         12.26
     2.225314          5.91
     2.225215          4.02
     2.223027          0.23
     2.222200         19.65
     2.219254          0.06
     2.216270          1.61
     2.213986        123.76
     2.208686          0.05
     2.208452         39.64
     2.199877          1.40
     2.199617         11.12
     2.198676         35.95
     2.190343         13.00
     2.189703         39.93
     2.187156         14.67
     2.187004         14.17
     2.181874         68.93
     2.178612          8.87
     2.178550          0.59
     2.178350         92.26
     2.176742         35.82
     2.173675         34.66
     2.168971         17.34
     2.163763          3.27
     2.162057          4.45
     2.156540          0.89
     2.156392         12.25
     2.153904          8.31
     2.152990          0.53
     2.148675         23.91
     2.143353         13.01
     2.139943          9.94
     2.135204         48.26
     2.132147         16.01
     2.131936         43.07
     2.131662          3.34
     2.130718          4.69
     2.128070          1.26
     2.127753          2.33
     2.124326          6.69
     2.124218         49.06
     2.123849         51.48
     2.122315          0.01
     2.115836          9.86
     2.113038         13.87
     2.112622         92.04
     2.111305          3.73
     2.099478         46.96
     2.092503          3.84
     2.091650         10.90
     2.091191        223.95
     2.089789        159.22
     2.089697         19.57
     2.085521          6.12
     2.085106          2.77
     2.084793          0.05
     2.079095          7.85
     2.077601         46.88
     2.073196          1.15
     2.068512         24.97
     2.067329         16.28
     2.062720          0.33
     2.062146          1.21
     2.059741          4.92
     2.058273         12.41
     2.055788        151.40
     2.055565         16.58
     2.048587          0.01
     2.048400         37.97
     2.047453         28.39
     2.046760          4.85
     2.045951         14.08
     2.042500          0.05
     2.041552         52.84
     2.038385         72.76
     2.034601          2.53
     2.034301          5.39
     2.033182          8.76
     2.030882         59.94
     2.025072         69.47
     2.023152          5.12
     2.020346         34.15
     2.020138         53.91
     2.019142         19.62
     2.016165          0.01
     2.012589          0.77
     2.012325        127.54
     2.011985          4.82
     2.009283          7.39
     2.005987         13.57
     2.004067         14.48
     2.003088         10.00
     2.002565          7.69
     2.000033         19.53
     2.000004          3.17
     1.999962          0.24
     1.997449         31.27
     1.997247          6.66
     1.996602         27.53
     1.992282         23.55
     1.986893          1.92
     1.985591          4.61
     1.984810         14.01
     1.983317          4.53
     1.982809          0.06
     1.980114         76.75
     1.978334         21.07
     1.977987          0.08
     1.977051          1.53
     1.974301          0.01
     1.973949         28.13
     1.971512         64.27
     1.966148         15.57
     1.963835          0.77
     1.961716          7.82
     1.961456         89.91
     1.961292         26.67
     1.960167          2.91
     1.959280         53.08
     1.955463         22.56
     1.955278         12.54
     1.951627          0.03
     1.951143         54.57
     1.950062         20.68
     1.948677          1.89
     1.942887          3.44
     1.937056          1.55
     1.936057          0.76
     1.935734         31.00
     1.935435          7.96
     1.934577          4.26
     1.933748          7.19
     1.930515          3.19
     1.929789         38.24
     1.928711          6.29
     1.928297          8.13
     1.928073         16.40
     1.924220         28.55
     1.918740          0.25
     1.918318         33.08
     1.917708          1.36
     1.912710          3.21
     1.912220         10.45
     1.911573         67.50
     1.909709          0.01
     1.909255          0.61
     1.909250          0.36
     1.907499          5.59
     1.907406         33.83
     1.905278         12.67
     1.904911         54.50
     1.904820          1.54
     1.904745          5.79
     1.900930         37.56
     1.900604         25.16
     1.898938         21.76
     1.897963         14.91
     1.893265         11.96
     1.890070         26.21
     1.888657         22.82
     1.888222         51.60
     1.887883         40.93
     1.884381         13.46
     1.878634          0.34
     1.876544          3.36
     1.875498          0.01
     1.873529         11.08
     1.873387          0.69
     1.873317          0.14
     1.872973         40.29
     1.872057          0.51
     1.868305         28.82
     1.868144          8.53
     1.866967          3.34
     1.861457         36.75
     1.860489         27.40
     1.860470          4.24
     1.859583          1.47
     1.859164          9.48
     1.857163          4.25
     1.857081         21.08
     1.855188         43.86
     1.855030         28.55
     1.854906         34.58
     1.850662          1.04
     1.849634         20.48
     1.849414         35.95
     1.849105         22.14
     1.845875          5.82
     1.845337         17.06
     1.843890          0.13
     1.841385          7.94
     1.840607          6.10
     1.839726          9.16
     1.838899         21.45
     1.836482          0.26
     1.836357          6.88
     1.835828         17.10
     1.835413          0.02
     1.833819         10.73
     1.832089          3.26
     1.830288         12.63
     1.829336          2.45
     1.828049         19.97
     1.824067         42.56
     1.821290         34.54
     1.820808          2.61
     1.820460          2.11
     1.820357          7.05
     1.815168          3.93
     1.813969          1.60
     1.813834          5.02
     1.810814          6.37
     1.810097          1.57
     1.809781         36.85
     1.808681          6.77
     1.807706          9.99
     1.804149         22.97
     1.803365          7.92
     1.802983          9.07
     1.800200          1.15
     1.794801         12.04
     1.793134          2.40
     1.791509          2.33
     1.791165          6.06
     1.790780          1.08
     1.786884         19.10
     1.786760          0.36
     1.786565          0.15
     1.785671          4.20
     1.785238          1.72
     1.784815          4.54
     1.782210          1.00
     1.781941         12.10
     1.781819          0.22
     1.780237          0.19
     1.780020          0.23
     1.779072          0.21
     1.777300          1.42
     1.775164          0.26
     1.772494         27.79
     1.772071          5.94
     1.770720         10.28
     1.769612          3.06
     1.768378          1.66
     1.766949         19.26
     1.763719          7.86
     1.763524         13.69
     1.762844          2.63
     1.762036          9.32
     1.758880          0.00
     1.758230          0.17
     1.757500          0.00
     1.757196          8.75
     1.756245          0.01
     1.751669          3.57
     1.750714          1.97
     1.749765          0.00
     1.749274          1.06
     1.749149          0.94
     1.749052         10.37
##############################################################################
###                            Comments                                    ###
##############################################################################
###   Diffraction pattern calculated by Match!. 
###   I/Ic calculated by Match!. 
##############################################################################


